 vasp.5.3.5 31Mar14 (build Dec 17 2015 22:09:37) complex

 executed on             LinuxIFC date 2017.03.19  16:23:43

 INCAR:
 POTCAR:    PAW_PBE Ti_pv 07Sep2000
 POTCAR:    PAW_PBE Ca_pv 06Sep2000
 POTCAR:    PAW_PBE O 08Apr2002

 POTCAR:    PAW_PBE Ti_pv 07Sep2000
   VRHFIN =Ti: d3 s1

   TITEL  = PAW_PBE Ti_pv 07Sep2000
   POMASS =   47.880; ZVAL   =   10.000    mass and valenz
   ENMAX  =  222.335; ENMIN  =  166.751 eV

 POTCAR:    PAW_PBE Ca_pv 06Sep2000
   VRHFIN =Ca: p6s2d0.01

   TITEL  = PAW_PBE Ca_pv 06Sep2000
   POMASS =   40.078; ZVAL   =    8.000    mass and valenz
   ENMAX  =  119.559; ENMIN  =   89.670 eV

 POTCAR:    PAW_PBE O 08Apr2002
   VRHFIN =O: s2p4

   TITEL  = PAW_PBE O 08Apr2002
   POMASS =   16.000; ZVAL   =    6.000    mass and valenz
   ENMAX  =  400.000; ENMIN  =  300.000 eV

  PAW_PBE Ti_pv 07Sep2000               :
  PAW_PBE Ca_pv 06Sep2000               :
  PAW_PBE O 08Apr2002                   :

 POSCAR: CaTiO3
  positions in direct lattice
  velocities in cartesian coordinates
 exchange correlation table for  LEXCH =        8
   RHO(1)=    0.500       N(1)  =     2000
   RHO(2)=  100.500       N(2)  =     4000

 VTST: version 3.1, (03/28/14)

 CHAIN: initializing optimizer

 OPT: Using VASP Conjugate-Gradient optimizer
 CHAIN: Read ICHAIN            0

 POSCAR: CaTiO3
  positions in direct lattice
  velocities in cartesian coordinates

 ion  position               nearest neighbor table
   1  0.010  0.020  0.030-   5 1.83   4 1.87   3 1.91   3 1.98   4 2.02   5 2.06   2 3.23   2 3.27
                             2 3.32   2 3.37   2 3.37   2 3.41   2 3.45   2 3.50
   2  0.500  0.500  0.500-   3 2.75   4 2.75   5 2.75   3 2.75   4 2.75   3 2.75   5 2.75   3 2.75
                             4 2.75   5 2.75   4 2.75   5 2.75   1 3.23   1 3.27   1 3.32   1 3.37
   3  0.500  0.000  0.000-   1 1.91   1 1.98   2 2.75   2 2.75   2 2.75   2 2.75
   4  0.000  0.500  0.000-   1 1.87   1 2.02   2 2.75   2 2.75   2 2.75   2 2.75
   5  0.000  0.000  0.500-   1 1.83   1 2.06   2 2.75   2 2.75   2 2.75   2 2.75

  LATTYP: Found a simple cubic cell.
 ALAT       =     3.8822000000

  Lattice vectors:

 A1 = (   3.8822000000,   0.0000000000,   0.0000000000)
 A2 = (   0.0000000000,   3.8822000000,   0.0000000000)
 A3 = (   0.0000000000,   0.0000000000,   3.8822000000)

Analysis of symmetry for initial positions (statically):
 Subroutine PRICEL returns:
 Original cell was already a primitive cell.

 Routine SETGRP: Setting up the symmetry group for a
 simple cubic supercell.

 Subroutine GETGRP returns: Found  1 space group operations
 (whereof  1 operations were pure point group operations)
 out of a pool of 48 trial point group operations.

The static configuration has the point symmetry C_1 .

Analysis of symmetry for dynamics (positions and initial velocities):
 Subroutine PRICEL returns:
 Original cell was already a primitive cell.

 Routine SETGRP: Setting up the symmetry group for a
 simple cubic supercell.

 Subroutine GETGRP returns: Found  1 space group operations
 (whereof  1 operations were pure point group operations)
 out of a pool of 48 trial point group operations.

The dynamic configuration has the point symmetry C_1 .

 KPOINTS: k-points

Automatic generation of k-mesh.
Space group operators:
 irot       det(A)        alpha          n_x          n_y          n_z        tau_x        tau_y        tau_z
    1     1.000000     0.000000     1.000000     0.000000     0.000000     0.000000     0.000000     0.000000

 Subroutine IBZKPT returns following result:

 Found     63 irreducible k-points:

 Following reciprocal coordinates:
            Coordinates               Weight
  0.000000  0.000000  0.000000      1.000000
  0.200000  0.000000  0.000000      2.000000
  0.400000  0.000000  0.000000      2.000000
  0.000000  0.200000  0.000000      2.000000
  0.200000  0.200000  0.000000      2.000000
  0.400000  0.200000  0.000000      2.000000
 -0.400000  0.200000  0.000000      2.000000
 -0.200000  0.200000  0.000000      2.000000
  0.000000  0.400000  0.000000      2.000000
  0.200000  0.400000  0.000000      2.000000
  0.400000  0.400000  0.000000      2.000000
 -0.400000  0.400000  0.000000      2.000000
 -0.200000  0.400000  0.000000      2.000000
  0.000000  0.000000  0.200000      2.000000
  0.200000  0.000000  0.200000      2.000000
  0.400000  0.000000  0.200000      2.000000
 -0.400000  0.000000  0.200000      2.000000
 -0.200000  0.000000  0.200000      2.000000
  0.000000  0.200000  0.200000      2.000000
  0.200000  0.200000  0.200000      2.000000
  0.400000  0.200000  0.200000      2.000000
 -0.400000  0.200000  0.200000      2.000000
 -0.200000  0.200000  0.200000      2.000000
  0.000000  0.400000  0.200000      2.000000
  0.200000  0.400000  0.200000      2.000000
  0.400000  0.400000  0.200000      2.000000
 -0.400000  0.400000  0.200000      2.000000
 -0.200000  0.400000  0.200000      2.000000
  0.000000 -0.400000  0.200000      2.000000
  0.200000 -0.400000  0.200000      2.000000
  0.400000 -0.400000  0.200000      2.000000
 -0.400000 -0.400000  0.200000      2.000000
 -0.200000 -0.400000  0.200000      2.000000
  0.000000 -0.200000  0.200000      2.000000
  0.200000 -0.200000  0.200000      2.000000
  0.400000 -0.200000  0.200000      2.000000
 -0.400000 -0.200000  0.200000      2.000000
 -0.200000 -0.200000  0.200000      2.000000
  0.000000  0.000000  0.400000      2.000000
  0.200000  0.000000  0.400000      2.000000
  0.400000  0.000000  0.400000      2.000000
 -0.400000  0.000000  0.400000      2.000000
 -0.200000  0.000000  0.400000      2.000000
  0.000000  0.200000  0.400000      2.000000
  0.200000  0.200000  0.400000      2.000000
  0.400000  0.200000  0.400000      2.000000
 -0.400000  0.200000  0.400000      2.000000
 -0.200000  0.200000  0.400000      2.000000
  0.000000  0.400000  0.400000      2.000000
  0.200000  0.400000  0.400000      2.000000
  0.400000  0.400000  0.400000      2.000000
 -0.400000  0.400000  0.400000      2.000000
 -0.200000  0.400000  0.400000      2.000000
  0.000000 -0.400000  0.400000      2.000000
  0.200000 -0.400000  0.400000      2.000000
  0.400000 -0.400000  0.400000      2.000000
 -0.400000 -0.400000  0.400000      2.000000
 -0.200000 -0.400000  0.400000      2.000000
  0.000000 -0.200000  0.400000      2.000000
  0.200000 -0.200000  0.400000      2.000000
  0.400000 -0.200000  0.400000      2.000000
 -0.400000 -0.200000  0.400000      2.000000
 -0.200000 -0.200000  0.400000      2.000000

 Following cartesian coordinates:
            Coordinates               Weight
  0.000000  0.000000  0.000000      1.000000
  0.200000  0.000000  0.000000      2.000000
  0.400000  0.000000  0.000000      2.000000
  0.000000  0.200000  0.000000      2.000000
  0.200000  0.200000  0.000000      2.000000
  0.400000  0.200000  0.000000      2.000000
 -0.400000  0.200000  0.000000      2.000000
 -0.200000  0.200000  0.000000      2.000000
  0.000000  0.400000  0.000000      2.000000
  0.200000  0.400000  0.000000      2.000000
  0.400000  0.400000  0.000000      2.000000
 -0.400000  0.400000  0.000000      2.000000
 -0.200000  0.400000  0.000000      2.000000
  0.000000  0.000000  0.200000      2.000000
  0.200000  0.000000  0.200000      2.000000
  0.400000  0.000000  0.200000      2.000000
 -0.400000  0.000000  0.200000      2.000000
 -0.200000  0.000000  0.200000      2.000000
  0.000000  0.200000  0.200000      2.000000
  0.200000  0.200000  0.200000      2.000000
  0.400000  0.200000  0.200000      2.000000
 -0.400000  0.200000  0.200000      2.000000
 -0.200000  0.200000  0.200000      2.000000
  0.000000  0.400000  0.200000      2.000000
  0.200000  0.400000  0.200000      2.000000
  0.400000  0.400000  0.200000      2.000000
 -0.400000  0.400000  0.200000      2.000000
 -0.200000  0.400000  0.200000      2.000000
  0.000000 -0.400000  0.200000      2.000000
  0.200000 -0.400000  0.200000      2.000000
  0.400000 -0.400000  0.200000      2.000000
 -0.400000 -0.400000  0.200000      2.000000
 -0.200000 -0.400000  0.200000      2.000000
  0.000000 -0.200000  0.200000      2.000000
  0.200000 -0.200000  0.200000      2.000000
  0.400000 -0.200000  0.200000      2.000000
 -0.400000 -0.200000  0.200000      2.000000
 -0.200000 -0.200000  0.200000      2.000000
  0.000000  0.000000  0.400000      2.000000
  0.200000  0.000000  0.400000      2.000000
  0.400000  0.000000  0.400000      2.000000
 -0.400000  0.000000  0.400000      2.000000
 -0.200000  0.000000  0.400000      2.000000
  0.000000  0.200000  0.400000      2.000000
  0.200000  0.200000  0.400000      2.000000
  0.400000  0.200000  0.400000      2.000000
 -0.400000  0.200000  0.400000      2.000000
 -0.200000  0.200000  0.400000      2.000000
  0.000000  0.400000  0.400000      2.000000
  0.200000  0.400000  0.400000      2.000000
  0.400000  0.400000  0.400000      2.000000
 -0.400000  0.400000  0.400000      2.000000
 -0.200000  0.400000  0.400000      2.000000
  0.000000 -0.400000  0.400000      2.000000
  0.200000 -0.400000  0.400000      2.000000
  0.400000 -0.400000  0.400000      2.000000
 -0.400000 -0.400000  0.400000      2.000000
 -0.200000 -0.400000  0.400000      2.000000
  0.000000 -0.200000  0.400000      2.000000
  0.200000 -0.200000  0.400000      2.000000
  0.400000 -0.200000  0.400000      2.000000
 -0.400000 -0.200000  0.400000      2.000000
 -0.200000 -0.200000  0.400000      2.000000

 I would recommend the setting:
   dimension x,y,z NGX =    19 NGY =   19 NGZ =   19
 SYSTEM =  unknown system
 POSCAR =  CaTiO3

 Startparameter for this run:
   NWRITE =      2    write-flag & timer
   PREC   = normal    normal or accurate (medium, high low for compatibility)
   ISTART =      0    job   : 0-new  1-cont  2-samecut
   ICHARG =      2    charge: 1-file 2-atom 10-const
   ISPIN  =      1    spin polarized calculation?
   LNONCOLLINEAR =      F non collinear calculations
   LSORBIT =      F    spin-orbit coupling
   INIWAV =      1    electr: 0-lowe 1-rand  2-diag
   LASPH  =      F    aspherical Exc in radial PAW
   METAGGA=      F    non-selfconsistent MetaGGA calc.

 Electronic Relaxation 1
   ENCUT  =  400.0 eV  29.40 Ry    5.42 a.u.   6.33  6.33  6.33*2*pi/ulx,y,z
   ENINI  =  400.0     initial cutoff
   ENAUG  =  605.4 eV  augmentation charge cutoff
   NELM   =     60;   NELMIN=  2; NELMDL= -5     # of ELM steps
   EDIFF  = 0.1E-03   stopping-criterion for ELM
   LREAL  =      F    real-space projection
   NLSPLINE    = F    spline interpolate recip. space projectors
   LCOMPAT=      F    compatible to vasp.4.4
   GGA_COMPAT  = T    GGA compatible to vasp.4.4-vasp.4.6
   LMAXPAW     = -100 max onsite density
   LMAXMIX     =    2 max onsite mixed and CHGCAR
   VOSKOWN=      0    Vosko Wilk Nusair interpolation
   ROPT   =    0.00000   0.00000   0.00000
 Ionic relaxation
   EDIFFG = 0.1E-02   stopping-criterion for IOM
   NSW    =   1024    number of steps for IOM
   NBLOCK =      1;   KBLOCK =   1024    inner block; outer block
   IBRION =      2    ionic relax: 0-MD 1-quasi-New 2-CG
   NFREE  =      1    steps in history (QN), initial steepest desc. (CG)
   ISIF   =      2    stress and relaxation
[...]
      1     -28.9156      2.00000
      2     -28.8887      2.00000
      3     -28.8740      2.00000
      4     -16.6291      2.00000
      5     -16.6259      2.00000
      6     -16.6202      2.00000
      7     -13.8633      2.00000
      8     -12.7813      2.00000
      9     -12.7314      2.00000
     10       0.6597      2.00000
     11       0.6714      2.00000
     12       0.6963      2.00000
     13       2.4077      2.00000
     14       2.4119      2.00000
     15       2.5568      2.00000
     16       3.0201      2.00004
     17       3.0914      2.00033
     18       3.1341      2.00100
     19       5.8174     -0.00000
     20       5.9909     -0.00000
     21       6.0731     -0.00000
     22       8.2686     -0.00000

[...]

 soft charge-density along one line, spin component           1
         0         1         2         3         4         5         6         7         8         9
 total charge-density along one line

------------------------ aborting loop because EDIFF is reached ----------------------------------------

  FORCE on cell =-STRESS in cart. coord.  units (eV):
  Direction    XX          YY          ZZ          XY          YZ          ZX
  Alpha Z   166.69950   166.69950   166.69950
  Ewald    -762.57650  -759.10358  -753.27963    -2.05165    -6.28837    -3.11938
  Hartree   227.45108   228.54729   230.45868    -0.90057    -2.71763    -1.35564
  E(xc)    -170.27465  -170.27072  -170.26490    -0.00383    -0.01125    -0.00564
  Local     -28.34271   -32.94866   -40.77290     2.98238     9.03960     4.50169
  n-local   -88.21699   -88.20871   -88.20941    -0.02965    -0.09919    -0.04795
  augment   132.80830   132.85254   132.92043    -0.01873    -0.05078    -0.02585
  Kinetic   521.02595   521.32025   521.87412     0.03946     0.17949     0.07969
  Fock        0.00000     0.00000     0.00000     0.00000     0.00000     0.00000
  Total      -1.42604    -1.11209    -0.57411     0.01741     0.05188     0.02693
  in kB     -39.04879   -30.45214   -15.72072     0.47685     1.42054     0.73729

 VOLUME and BASIS-vectors are now :
  energy-cutoff  :      400.00
  volume of cell :       58.51
      direct lattice vectors                 reciprocal lattice vectors
     3.882200000  0.000000000  0.000000000     0.257585905  0.000000000  0.000000000
     0.000000000  3.882200000  0.000000000     0.000000000  0.257585905  0.000000000
     0.000000000  0.000000000  3.882200000     0.000000000  0.000000000  0.257585905

[...]

 FORCES acting on ions
    electron-ion (+dipol)            ewald-force                    non-local-force                 convergence-correction
   0.973E+01 0.197E+02 0.303E+02   -.996E+01 -.203E+02 -.313E+02   0.761E-01 0.174E+00 0.353E+00   0.148E-02 0.103E-02 -.491E-02
   -.313E+01 -.623E+01 -.928E+01   0.324E+01 0.645E+01 0.960E+01   -.104E-01 -.211E-01 -.320E-01   0.348E-03 0.788E-03 0.721E-03
   -.173E+02 0.113E+02 0.169E+02   0.194E+02 -.124E+02 -.185E+02   -.194E+01 0.103E+01 0.160E+01   -.409E-02 0.170E-02 0.267E-02
   0.572E+01 -.348E+02 0.171E+02   -.626E+01 0.390E+02 -.188E+02   0.516E+00 -.391E+01 0.163E+01   0.849E-03 -.831E-02 0.289E-02
   0.583E+01 0.116E+02 -.526E+02   -.639E+01 -.128E+02 0.590E+02   0.536E+00 0.109E+01 -.592E+01   0.880E-03 0.175E-02 -.133E-01
   0.828E+00 0.163E+01 0.239E+01   -.888E-15 0.355E-14 -.711E-14   -.825E+00 -.163E+01 -.237E+01   -.533E-03 -.304E-02 -.119E-01

 POSITION                                       TOTAL-FORCE (eV/Angst)
      0.03882      0.07764      0.11647        -0.152793     -0.375022     -0.702536
      1.94110      1.94110      1.94110         0.096439      0.193379      0.285486
      1.94110      0.00000      0.00000         0.103526     -0.036520     -0.037716
      0.00000      1.94110      0.00000        -0.023379      0.255976     -0.038392
      0.00000      0.00000      1.94110        -0.023792     -0.037813      0.493158
    total drift:                                0.002380     -0.003137      0.005404

  FREE ENERGIE OF THE ION-ELECTRON SYSTEM (eV)
  free  energy   TOTEN  =       -40.02504432 eV

  energy  without entropy=      -40.03190716  energy(sigma->0) =      -40.02733194

 stress matrix after NEB project (eV)
     -1.42604      0.01741      0.02693
      0.01741     -1.11209      0.05188
      0.02693      0.05188     -0.57411
  FORCES: max atom, RMS     0.810891    0.471585
  FORCE total and by dimension    1.054496    0.702536
  Stress total and by dimension    1.899308    1.426037

[...]

 d Force = 0.3143104E-01[ 0.922E-02, 0.536E-01]  d Energy = 0.2985805E-01 0.157E-02
 d Force = 0.2684666E+01[ 0.155E+01, 0.382E+01]  d Ewald  = 0.2684195E+01 0.471E-03

 stress matrix after NEB project (eV)
     -1.52033      0.01777      0.02547
      0.01777     -1.39955      0.04881
      0.02547      0.04881     -1.28961
  FORCES: max atom, RMS     0.276810    0.195555
  FORCE total and by dimension    0.437275    0.216391
  Stress total and by dimension    2.437199    1.520334
 Steepest descent step on ions:
 trial-energy change:   -0.029858  1 .order   -0.031431   -0.053644   -0.009218
  (g-gl).g = 0.536E-01      g.g   = 0.536E-01  gl.gl    = 0.000E+00
 g(Force)  = 0.536E-01   g(Stress)= 0.000E+00 ortho     = 0.000E+00
 gamma     =   0.00000
 trial     =   1.00000
 opt step  =   1.28544  (harmonic =   1.20749) maximal distance =0.03058231
 next E    =   -40.056181   (d E  =  -0.03114)

[...]

 d Force = 0.9380699E-02[ 0.611E-02, 0.127E-01]  d Energy = 0.9429962E-02-0.493E-04
 d Force =-0.2922340E+00[-0.281E+00,-0.303E+00]  d Ewald  =-0.2922911E+00 0.571E-04

 stress matrix after NEB project (eV)
     -1.52759      0.00926      0.01130
      0.00926     -1.46551      0.02028
      0.01130      0.02028     -1.42848
  FORCES: max atom, RMS     0.174978    0.105544
  FORCE total and by dimension    0.236004    0.129068
  Stress total and by dimension    2.554031    1.527591
 Conjugate gradient step on ions:
 trial-energy change:   -0.009430  1 .order   -0.009381   -0.012651   -0.006111
  (g-gl).g = 0.115E-01      g.g   = 0.119E-01  gl.gl    = 0.536E-01
 g(Force)  = 0.119E-01   g(Stress)= 0.000E+00 ortho     = 0.386E-03
 gamma     =   0.21435
 trial     =   1.05709
 opt step  =   2.04474  (harmonic =   2.04474) maximal distance =0.02560067
 next E    =   -40.068576   (d E  =  -0.01224)

[...]

 d Force = 0.1487837E-02[ 0.126E-02, 0.172E-02]  d Energy = 0.1470893E-02 0.169E-04
 d Force =-0.1016574E-01[-0.452E-01, 0.248E-01]  d Ewald  =-0.1016468E-01-0.106E-05

[...]

 d Force = 0.1425979E-02[-0.617E-03, 0.347E-02]  d Energy = 0.1281767E-02 0.144E-03
 d Force =-0.3900645E+00[-0.656E+00,-0.124E+00]  d Ewald  =-0.3900093E+00-0.552E-04

[...]

 stress matrix after NEB project (eV)
     -1.48129      0.02089      0.02548
      0.02089     -1.44932      0.04292
      0.02548      0.04292     -1.45829
  FORCES: max atom, RMS     0.175466    0.117167
  FORCE total and by dimension    0.261994    0.167716
  Stress total and by dimension    2.535198    1.481293
 Conjugate gradient step on ions:
 trial-energy change:   -0.000704  1 .order   -0.000722   -0.000719   -0.000724
  (g-gl).g = 0.325E-02      g.g   = 0.300E-02  gl.gl    = 0.135E-02
 g(Force)  = 0.300E-02   g(Stress)= 0.000E+00 ortho     =-0.178E-03
 gamma     =   2.41293
 trial     =   0.27956
 opt step  =   1.11823  (harmonic =   1.11823) maximal distance =0.01701474
 next E    =   -40.074409   (d E  =  -0.00291)

[...]

 d Force = 0.2368686E-02[-0.228E-02, 0.701E-02]  d Energy = 0.3504660E-02-0.114E-02
 d Force =-0.4439477E+01[-0.547E+01,-0.341E+01]  d Ewald  =-0.4436233E+01-0.324E-02

[...]

 stress matrix after NEB project (eV)
     -1.14893      0.17745      0.21077
      0.17745     -1.03426      0.36531
      0.21077      0.36531     -1.01010
  FORCES: max atom, RMS     0.505184    0.253076
  FORCE total and by dimension    0.565896    0.363171
  Stress total and by dimension    1.956723    1.148926
 Conjugate gradient step on ions:
 trial-energy change:   -0.001493  1 .order   -0.001470   -0.001490   -0.001450
  (g-gl).g = 0.101E-01      g.g   = 0.148E-01  gl.gl    = 0.300E-02
 g(Force)  = 0.148E-01   g(Stress)= 0.000E+00 ortho     =-0.678E-03
 gamma     =   3.37370
 trial     =   0.11956
 opt step  =   0.47824  (harmonic =   4.36343) maximal distance =0.02249505
 next E    =   -40.109029   (d E  =  -0.02720)

[...]

 d Force = 0.3472352E-02[ 0.260E-02, 0.435E-02]  d Energy = 0.3505629E-02-0.333E-04
 d Force =-0.1977347E+01[-0.210E+01,-0.185E+01]  d Ewald  =-0.1977228E+01-0.119E-03

[...]

 d Force =-0.1064971E-02[-0.732E-02, 0.519E-02]  d Energy =-0.2428986E-03-0.822E-03
 d Force =-0.4706936E+01[-0.521E+01,-0.420E+01]  d Ewald  =-0.4705924E+01-0.101E-02

[...]

 d Force = 0.1777817E-02[-0.729E-03, 0.428E-02]  d Energy = 0.1598159E-02 0.180E-03
 d Force = 0.2875701E+01[ 0.270E+01, 0.305E+01]  d Ewald  = 0.2875499E+01 0.202E-03

[...]

 d Force = 0.1227843E-02[-0.109E-01, 0.133E-01]  d Energy = 0.2043879E-02-0.816E-03
 d Force = 0.1046038E+00[-0.759E-01, 0.285E+00]  d Ewald  = 0.1020961E+00 0.251E-02

[...]

 d Force = 0.2145383E-02[-0.589E-03, 0.488E-02]  d Energy = 0.2089207E-02 0.562E-04
 d Force =-0.1492279E-02[-0.371E-01, 0.341E-01]  d Ewald  =-0.1248082E-02-0.244E-03

[...]

 d Force = 0.1006333E-02[ 0.701E-03, 0.131E-02]  d Energy = 0.1001018E-02 0.532E-05
 d Force = 0.3819380E+00[ 0.377E+00, 0.387E+00]  d Ewald  = 0.3819370E+00 0.987E-06

 stress matrix after NEB project (eV)
     -1.03447      0.23251      0.28059
      0.23251     -0.58059      0.49492
      0.28059      0.49492     -0.40691
  FORCES: max atom, RMS     0.072072    0.053803
  FORCE total and by dimension    0.120308    0.056061
  Stress total and by dimension    1.525873    1.034474
 Conjugate gradient step on ions:
 trial-energy change:   -0.001001  1 .order   -0.001006   -0.001312   -0.000701
  (g-gl).g = 0.613E-03      g.g   = 0.228E-02  gl.gl    = 0.167E-01
 g(Force)  = 0.228E-02   g(Stress)= 0.000E+00 ortho     = 0.872E-03
 gamma     =   0.03669
 trial     =   0.56710
 opt step  =   1.21702  (harmonic =   1.21702) maximal distance =0.00710460
 next E    =   -40.106895   (d E  =  -0.00141)

 FEWALD executed in parallel

[...]

 eigenvalue-minimisations  :  3498
 total energy-change (2. order) :-0.4450027E-03  (-0.5645529E-03)
 number of electron      36.0000024 magnetization
 augmentation part       11.1269771 magnetization

 Broyden mixing:
  rms(total) = 0.96088E-02    rms(broyden)= 0.96063E-02
  rms(prec ) = 0.12029E-01
  weight for this iteration     100.00

 eigenvalues of (default mixing * dielectric matrix)
  average eigenvalue GAMMA=   0.7422
  0.7422

[...]

----------------------------------------- Iteration   21(   3)  ---------------------------------------

 eigenvalue-minimisations  :  4114
 total energy-change (2. order) : 0.2060605E-04  (-0.1505994E-04)
 number of electron      36.0000024 magnetization
 augmentation part       11.1269771 magnetization

 Free energy of the ion-electron system (eV)
  alpha Z        PSCENC =       166.69949767
  Ewald energy   TEWEN  =     -2267.24579517
  -Hartree energ DENC   =      -693.90157214
  -exchange      EXHF   =         0.00000000
  -V(xc)+E(xc)   XCENC  =       137.81058587
  PAW double counting   =      3564.77680602    -3571.33069142
  entropy T*S    EENTRO =         0.00690223
  eigenvalues    EBANDS =      -328.97532951
  atomic energy  EATOM  =      2952.05274943
  free energy    TOTEN  =       -40.10684701 eV

  energy without entropy =      -40.11374924  energy(sigma->0) =      -40.10914776

 average (electrostatic) potential at core
  the test charge radii are     1.0397  1.2658  0.7215
  (the norm of the test charge is              1.0000)
       1 -53.0611       2 -45.3803       3 -70.1437       4 -70.1668       5 -70.1750

 E-fermi :   3.5729     XC(G=0): -10.9798     alpha+bet :-13.2781

[...]

 k-point    63 :      -0.2000   -0.2000    0.4000
  band No.  band energies     occupation
      1     -29.0551      2.00000
      2     -29.0084      2.00000
      3     -29.0015      2.00000
      4     -16.5900      2.00000
      5     -16.4472      2.00000
      6     -16.4144      2.00000
      7     -13.0278      2.00000
      8     -12.6617      2.00000
      9     -12.4611      2.00000
     10      -0.7034      2.00000
     11      -0.2506      2.00000
     12       0.0072      2.00000
     13       0.4385      2.00000
     14       0.8402      2.00000
     15       1.4078      2.00000
     16       2.5191      2.00000
     17       2.5337      2.00000
     18       2.8067      2.00000
     19       6.8886     -0.00000
     20       7.4056     -0.00000
     21       7.5758     -0.00000
     22       9.6998      0.00000

 soft charge-density along one line, spin component           1
         0         1         2         3         4         5         6         7         8         9
 total charge-density along one line

------------------------ aborting loop because EDIFF is reached ----------------------------------------

  FORCE on cell =-STRESS in cart. coord.  units (eV):
  Direction    XX          YY          ZZ          XY          YZ          ZX
  Alpha Z   166.69950   166.69950   166.69950
  Ewald    -751.99281  -756.26070  -758.99408    -2.12669    -3.62875    -2.45331
  Hartree   234.67789   230.74287   228.46296    -1.03751    -1.90658    -1.22437
  E(xc)    -170.38632  -170.38807  -170.38934    -0.00554    -0.01112    -0.00662
  Local     -46.19112   -38.01793   -33.00877     3.17056     5.58072     3.69361
  n-local   -88.14620   -88.18627   -88.21186    -0.00272     0.06093     0.00976
  augment   132.77588   132.80657   132.81472    -0.01796    -0.03807    -0.02211
  Kinetic   521.49813   521.95639   522.14844     0.25091     0.43192     0.28156
  Fock        0.00000     0.00000     0.00000     0.00000     0.00000     0.00000
  Total      -1.06505    -0.64765    -0.47842     0.23105     0.48905     0.27853
  in kB     -29.16403   -17.73447   -13.10036     6.32670    13.39140     7.62690

 VOLUME and BASIS-vectors are now :
  energy-cutoff  :      400.00
  volume of cell :       58.51
      direct lattice vectors                 reciprocal lattice vectors
     3.882200000  0.000000000  0.000000000     0.257585905  0.000000000  0.000000000
     0.000000000  3.882200000  0.000000000     0.000000000  0.257585905  0.000000000
     0.000000000  0.000000000  3.882200000     0.000000000  0.000000000  0.257585905

  length of vectors
     3.882200000  3.882200000  3.882200000     0.257585905  0.257585905  0.257585905

 FORCES acting on ions
    electron-ion (+dipol)            ewald-force                    non-local-force                 convergence-correction
   -.266E+01 -.694E+01 -.882E+01   0.257E+01 0.677E+01 0.862E+01   0.823E-01 0.150E+00 0.177E+00   0.322E-01 0.405E-01 0.444E-01
   0.276E+02 0.446E+02 0.511E+02   -.271E+02 -.440E+02 -.503E+02   -.446E+00 -.700E+00 -.795E+00   -.604E-02 -.971E-02 -.101E-01
   -.158E+02 -.720E+01 -.825E+01   0.185E+02 0.731E+01 0.836E+01   -.269E+01 -.894E-01 -.997E-01   -.356E-01 0.124E-01 0.201E-01
   -.328E+01 -.210E+02 -.666E+01   0.326E+01 0.250E+02 0.658E+01   0.298E-01 -.390E+01 0.356E-01   0.886E-02 -.925E-01 0.462E-01
   -.284E+01 -.505E+01 -.224E+02   0.277E+01 0.490E+01 0.268E+02   0.656E-01 0.956E-01 -.429E+01   0.164E-01 0.465E-01 -.965E-01
   0.295E+01 0.444E+01 0.496E+01   0.888E-15 0.888E-15 0.178E-13   -.296E+01 -.444E+01 -.497E+01   0.159E-01 -.288E-02 0.405E-02

 POSITION                                       TOTAL-FORCE (eV/Angst)
      0.04203      0.06291      0.07410         0.017787      0.019882      0.024401
      2.03661      2.10080      2.13087        -0.024829     -0.033480     -0.032891
      1.92506     -0.05777     -0.06215        -0.007640      0.034718      0.030250
     -0.04043      1.92096     -0.06844         0.011452     -0.020674      0.003694
     -0.04226     -0.06706      1.92429         0.003229     -0.000445     -0.025455
    total drift:                                0.003880     -0.006374     -0.008540

  FREE ENERGIE OF THE ION-ELECTRON SYSTEM (eV)
  free  energy   TOTEN  =       -40.10684701 eV

  energy  without entropy=      -40.11374924  energy(sigma->0) =      -40.10914776

 d Force = 0.3889260E-03[-0.251E-04, 0.803E-03]  d Energy = 0.3587929E-03 0.301E-04
 d Force = 0.4247873E+00[ 0.418E+00, 0.432E+00]  d Ewald  = 0.4247858E+00 0.141E-05

 stress matrix after NEB project (eV)
     -1.06505      0.23105      0.27853
      0.23105     -0.64765      0.48905
      0.27853      0.48905     -0.47842
  FORCES: max atom, RMS     0.053096    0.038822
  FORCE total and by dimension    0.086809    0.034718
  Stress total and by dimension    1.588371    1.065052

 reached required accuracy - stopping structural energy minimisation
 writing wavefunctions