 vasp.5.3.5 31Mar14 (build Dec 17 2015 22:09:37) complex

 executed on             LinuxIFC date 2017.03.19  05:10:23

 INCAR:
 POTCAR:    PAW_PBE Ti_pv 07Sep2000
 POTCAR:    PAW_PBE Ca_pv 06Sep2000
 POTCAR:    PAW_PBE O 08Apr2002

 POTCAR:    PAW_PBE Ti_pv 07Sep2000
   VRHFIN =Ti: d3 s1

   TITEL  = PAW_PBE Ti_pv 07Sep2000
   POMASS =   47.880; ZVAL   =   10.000    mass and valenz
   ENMAX  =  222.335; ENMIN  =  166.751 eV

 POTCAR:    PAW_PBE Ca_pv 06Sep2000
   VRHFIN =Ca: p6s2d0.01

   TITEL  = PAW_PBE Ca_pv 06Sep2000
   POMASS =   40.078; ZVAL   =    8.000    mass and valenz
   ENMAX  =  119.559; ENMIN  =   89.670 eV

 POTCAR:    PAW_PBE O 08Apr2002
   VRHFIN =O: s2p4

   TITEL  = PAW_PBE O 08Apr2002
   POMASS =   16.000; ZVAL   =    6.000    mass and valenz
   ENMAX  =  400.000; ENMIN  =  300.000 eV

  PAW_PBE Ti_pv 07Sep2000               :
  PAW_PBE Ca_pv 06Sep2000               :
  PAW_PBE O 08Apr2002                   :

 POSCAR: CaTiO3
  positions in direct lattice
  velocities in cartesian coordinates
 exchange correlation table for  LEXCH =        8
   RHO(1)=    0.500       N(1)  =     2000
   RHO(2)=  100.500       N(2)  =     4000

 VTST: version 3.1, (03/28/14)

 CHAIN: initializing optimizer

 OPT: Using VASP Conjugate-Gradient optimizer
 CHAIN: Read ICHAIN            0

 POSCAR: CaTiO3
  positions in direct lattice
  velocities in cartesian coordinates

 ion  position               nearest neighbor table
   1  0.010  0.010  0.010-   3 1.90   4 1.90   5 1.90   5 1.98   4 1.98   3 1.98   2 3.29   2 3.34
                             2 3.34   2 3.34   2 3.39   2 3.39   2 3.39   2 3.43
   2  0.500  0.500  0.500-   3 2.75   4 2.75   5 2.75   3 2.75   4 2.75   3 2.75   5 2.75   3 2.75
                             4 2.75   5 2.75   4 2.75   5 2.75   1 3.29   1 3.34   1 3.34   1 3.34
   3  0.500  0.000  0.000-   1 1.90   1 1.98   2 2.75   2 2.75   2 2.75   2 2.75
   4  0.000  0.500  0.000-   1 1.90   1 1.98   2 2.75   2 2.75   2 2.75   2 2.75
   5  0.000  0.000  0.500-   1 1.90   1 1.98   2 2.75   2 2.75   2 2.75   2 2.75

  LATTYP: Found a simple cubic cell.
 ALAT       =     3.8822000000

  Lattice vectors:

 A1 = (   3.8822000000,   0.0000000000,   0.0000000000)
 A2 = (   0.0000000000,   3.8822000000,   0.0000000000)
 A3 = (   0.0000000000,   0.0000000000,   3.8822000000)

Analysis of symmetry for initial positions (statically):
 Subroutine PRICEL returns:
 Original cell was already a primitive cell.

 Routine SETGRP: Setting up the symmetry group for a
 simple cubic supercell.

 Subroutine GETGRP returns: Found  6 space group operations
 (whereof  6 operations were pure point group operations)
 out of a pool of 48 trial point group operations.

The static configuration has the point symmetry C_3v.

Analysis of symmetry for dynamics (positions and initial velocities):
 Subroutine PRICEL returns:
 Original cell was already a primitive cell.

 Routine SETGRP: Setting up the symmetry group for a
 simple cubic supercell.

 Subroutine GETGRP returns: Found  6 space group operations
 (whereof  6 operations were pure point group operations)
 out of a pool of 48 trial point group operations.

The dynamic configuration has the point symmetry C_3v.

 KPOINTS: k-points

Automatic generation of k-mesh.
Space group operators:
 irot       det(A)        alpha          n_x          n_y          n_z        tau_x        tau_y        tau_z
    1     1.000000     0.000000     1.000000     0.000000     0.000000     0.000000     0.000000     0.000000
    2     1.000000   120.000000    -0.577350    -0.577350    -0.577350     0.000000     0.000000     0.000000
    3     1.000000   120.000000     0.577350     0.577350     0.577350     0.000000     0.000000     0.000000
    4    -1.000000   180.000000     0.000000    -0.707107     0.707107     0.000000     0.000000     0.000000
    5    -1.000000   180.000000     0.707107    -0.707107     0.000000     0.000000     0.000000     0.000000
    6    -1.000000   180.000000     0.707107     0.000000    -0.707107     0.000000     0.000000     0.000000

 Subroutine IBZKPT returns following result:

 Found     19 irreducible k-points:

 Following reciprocal coordinates:
            Coordinates               Weight
  0.000000  0.000000  0.000000      1.000000
  0.200000  0.000000  0.000000      6.000000
  0.400000  0.000000  0.000000      6.000000
  0.200000  0.200000  0.000000      6.000000
  0.400000  0.200000  0.000000     12.000000
 -0.400000  0.200000  0.000000     12.000000
 -0.200000  0.200000  0.000000      6.000000
  0.400000  0.400000  0.000000      6.000000
 -0.400000  0.400000  0.000000      6.000000
  0.200000  0.200000  0.200000      2.000000
  0.400000  0.200000  0.200000      6.000000
 -0.400000  0.200000  0.200000      6.000000
 -0.200000  0.200000  0.200000      6.000000
  0.400000  0.400000  0.200000      6.000000
 -0.400000  0.400000  0.200000     12.000000
 -0.200000  0.400000  0.200000     12.000000
 -0.400000 -0.400000  0.200000      6.000000
  0.400000  0.400000  0.400000      2.000000
 -0.400000  0.400000  0.400000      6.000000

 Following cartesian coordinates:
            Coordinates               Weight
  0.000000  0.000000  0.000000      1.000000
  0.200000  0.000000  0.000000      6.000000
  0.400000  0.000000  0.000000      6.000000
  0.200000  0.200000  0.000000      6.000000
  0.400000  0.200000  0.000000     12.000000
 -0.400000  0.200000  0.000000     12.000000
 -0.200000  0.200000  0.000000      6.000000
  0.400000  0.400000  0.000000      6.000000
 -0.400000  0.400000  0.000000      6.000000
  0.200000  0.200000  0.200000      2.000000
  0.400000  0.200000  0.200000      6.000000
 -0.400000  0.200000  0.200000      6.000000
 -0.200000  0.200000  0.200000      6.000000
  0.400000  0.400000  0.200000      6.000000
 -0.400000  0.400000  0.200000     12.000000
 -0.200000  0.400000  0.200000     12.000000
 -0.400000 -0.400000  0.200000      6.000000
  0.400000  0.400000  0.400000      2.000000
 -0.400000  0.400000  0.400000      6.000000

 I would recommend the setting:
   dimension x,y,z NGX =    19 NGY =   19 NGZ =   19
 SYSTEM =  unknown system
 POSCAR =  CaTiO3

 Startparameter for this run:
   NWRITE =      2    write-flag & timer
   PREC   = normal    normal or accurate (medium, high low for compatibility)
   ISTART =      1    job   : 0-new  1-cont  2-samecut
   ICHARG =      0    charge: 1-file 2-atom 10-const
   ISPIN  =      1    spin polarized calculation?
   LNONCOLLINEAR =      F non collinear calculations
   LSORBIT =      F    spin-orbit coupling
   INIWAV =      1    electr: 0-lowe 1-rand  2-diag
   LASPH  =      F    aspherical Exc in radial PAW
   METAGGA=      F    non-selfconsistent MetaGGA calc.

 Electronic Relaxation 1
   ENCUT  =  400.0 eV  29.40 Ry    5.42 a.u.   6.33  6.33  6.33*2*pi/ulx,y,z
   ENINI  =  400.0     initial cutoff
   ENAUG  =  605.4 eV  augmentation charge cutoff
   NELM   =     60;   NELMIN=  2; NELMDL=  0     # of ELM steps
   EDIFF  = 0.1E-03   stopping-criterion for ELM
   LREAL  =      F    real-space projection
   NLSPLINE    = F    spline interpolate recip. space projectors
   LCOMPAT=      F    compatible to vasp.4.4
   GGA_COMPAT  = T    GGA compatible to vasp.4.4-vasp.4.6
   LMAXPAW     = -100 max onsite density
   LMAXMIX     =    2 max onsite mixed and CHGCAR
   VOSKOWN=      0    Vosko Wilk Nusair interpolation
   ROPT   =    0.00000   0.00000   0.00000
 Ionic relaxation
   EDIFFG = 0.1E-02   stopping-criterion for IOM
   NSW    =   1024    number of steps for IOM
   NBLOCK =      1;   KBLOCK =   1024    inner block; outer block
   IBRION =      2    ionic relax: 0-MD 1-quasi-New 2-CG
   NFREE  =      1    steps in history (QN), initial steepest desc. (CG)
   ISIF   =      2    stress and relaxation
   IWAVPR =     11    prediction:  0-non 1-charg 2-wave 3-comb
   ISYM   =      2    0-nonsym 1-usesym 2-fastsym
   LCORR  =      T    Harris-Foulkes like correction to forces

   POTIM  = 0.5000    time-step for ionic-motion
   TEIN   =    0.0    initial temperature
   TEBEG  =    0.0;   TEEND  =   0.0 temperature during run
   SMASS  =  -3.00    Nose mass-parameter (am)
   estimated Nose-frequenzy (Omega)   =  0.10E-29 period in steps =****** mass=  -0.344E-27a.u.
   SCALEE = 1.0000    scale energy and forces
   NPACO  =    256;   APACO  = 16.0  distance and # of slots for P.C.
   PSTRESS=    0.0 pullay stress

  Mass of Ions in am
   POMASS =  47.88 40.08 16.00
  Ionic Valenz
   ZVAL   =  10.00  8.00  6.00
  Atomic Wigner-Seitz radii
  virtual crystal weights
   VCA    =   1.00  1.00  1.00
   NELECT =      36.0000    total number of electrons
   NUPDOWN=      -1.0000    fix difference up-down

 DOS related values:
   EMIN   =  10.00;   EMAX   =-10.00  energy-range for DOS
   EFERMI =   0.00
   ISMEAR =     1;   SIGMA  =   0.20  broadening in eV -4-tet -1-fermi 0-gaus

 Electronic relaxation 2 (details)
   IALGO  =     38    algorithm
   LDIAG  =      T    sub-space diagonalisation (order eigenvalues)
   LSUBROT=      F    optimize rotation matrix (better conditioning)
   TURBO    =      0    0=normal 1=particle mesh
   IRESTART =      0    0=no restart 2=restart with 2 vectors
   NREBOOT  =      0    no. of reboots
   NMIN     =      0    reboot dimension
   EREF     =   0.00    reference energy to select bands
   IMIX   =      4    mixing-type and parameters
     AMIX     =   0.40;   BMIX     =  1.00
     AMIX_MAG =   1.60;   BMIX_MAG =  1.00
     AMIN     =   0.10
     WC   =   100.;   INIMIX=   1;  MIXPRE=   1;  MAXMIX= -45

 Intra band minimization:
   WEIMIN = 0.0010     energy-eigenvalue tresh-hold
   EBREAK =  0.11E-05  absolut break condition
   DEPER  =   0.30     relativ break condition

   TIME   =   0.40     timestep for ELM

  volume/ion in A,a.u.               =      11.70        78.97
  Fermi-wavevector in a.u.,A,eV,Ry     =   1.392401  2.631257 26.378723  1.938781
  Thomas-Fermi vector in A             =   2.516148

 Write flags
   LWAVE  =      T    write WAVECAR
   LCHARG =      T    write CHGCAR
   LVTOT  =      F    write LOCPOT, total local potential
   LVHAR  =      F    write LOCPOT, Hartree potential only
   LELF   =      F    write electronic localiz. function (ELF)
   LORBIT =      0    0 simple, 1 ext, 2 COOP (PROOUT)

 Dipole corrections
   LMONO  =      F    monopole corrections only (constant potential shift)
   LDIPOL =      F    correct potential (dipole corrections)
   IDIPOL =      0    1-x, 2-y, 3-z, 4-all directions
   EPSILON=  1.0000000 bulk dielectric constant

 Exchange correlation treatment:
   GGA     =    --    GGA type
   VOSKOWN=      0    Vosko Wilk Nusair interpolation
   LHFCALC =     F    Hartree Fock is set to
   LHFONE  =     F    Hartree Fock one center treatment
   AEXX    =    0.0000 exact exchange contribution

 Linear response parameters
   LEPSILON=     F    determine dielectric tensor
   LRPA    =     F    only Hartree local field effects (RPA)
   LNABLA  =     F    use nabla operator in PAW spheres
   LVEL    =     F    velocity operator in full k-point grid
   LINTERFAST=   F  fast interpolation
   KINTER  =     0    interpolate to denser k-point grid
[...]

----------------------------------------- Iteration    1(   1)  ---------------------------------------

 eigenvalue-minimisations  :  1078
 total energy-change (2. order) :-0.3976431E+02  (-0.1069538E+03)
 number of electron      36.0000158 magnetization
 augmentation part       11.6170737 magnetization

 Broyden mixing:
  rms(total) = 0.19903E+01    rms(broyden)= 0.19900E+01
  rms(prec ) = 0.37893E+01
  weight for this iteration     100.00

 Free energy of the ion-electron system (eV)
  alpha Z        PSCENC =       166.69949767
  Ewald energy   TEWEN  =     -2277.16935736
  -Hartree energ DENC   =      -676.66802220
  -exchange      EXHF   =         0.00000000
  -V(xc)+E(xc)   XCENC  =       137.77699668
  PAW double counting   =      4077.17538015    -4087.59626148
  entropy T*S    EENTRO =        -0.01074726
  eigenvalues    EBANDS =      -332.02454689
  atomic energy  EATOM  =      2952.05274943
  free energy    TOTEN  =       -39.76431125 eV

  energy without entropy =      -39.75356399  energy(sigma->0) =      -39.76072883

[...]

 eigenvalues of (default mixing * dielectric matrix)
  average eigenvalue GAMMA=   0.7082
  0.7082

[...]

 eigenvalue-minimisations  :  1342
 total energy-change (2. order) : 0.1994835E+01  (-0.9665155E+00)
 number of electron      36.0000159 magnetization
 augmentation part       11.0360680 magnetization

[...]

 average (electrostatic) potential at core
  the test charge radii are     1.0397  1.2658  0.7215
  (the norm of the test charge is              1.0000)
       1 -53.0837       2 -45.6341       3 -70.0986       4 -70.0986       5 -70.0986

 E-fermi :   3.6881     XC(G=0): -11.0109     alpha+bet :-13.2781

 k-point     1 :       0.0000    0.0000    0.0000
  band No.  band energies     occupation
      1     -28.9862      2.00000
      2     -28.9862      2.00000
      3     -28.9847      2.00000
      4     -16.6018      2.00000
      5     -16.6009      2.00000
      6     -16.6009      2.00000
      7     -13.8707      2.00000
      8     -12.7716      2.00000
      9     -12.7716      2.00000
     10       0.6579      2.00000
     11       0.6579      2.00000
     12       0.6604      2.00000
     13       2.5430      2.00000
     14       2.5430      2.00000
     15       2.5730      2.00000
     16       3.2146      2.00410
     17       3.2475      2.00786
     18       3.2475      2.00786
     19       5.6674     -0.00000
     20       5.6674     -0.00000
     21       5.6997     -0.00000
     22       8.1269     -0.00000

[...]

 soft charge-density along one line, spin component           1
         0         1         2         3         4         5         6         7         8         9
 total charge-density along one line

------------------------ aborting loop because EDIFF is reached ----------------------------------------

  FORCE on cell =-STRESS in cart. coord.  units (eV):
  Direction    XX          YY          ZZ          XY          YZ          ZX
  Alpha Z   166.69950   166.69950   166.69950
  Ewald    -759.05717  -759.05717  -759.05717    -1.04812    -1.04812    -1.04812
  Hartree   227.98464   227.98464   227.98464    -0.45744    -0.45744    -0.45744
  E(xc)    -170.17308  -170.17308  -170.17308    -0.00192    -0.00192    -0.00192
  Local     -32.88333   -32.88333   -32.88333     1.52093     1.52093     1.52093
  n-local   -90.44071   -88.77703   -85.07608     0.01383    -0.12185     0.06475
  augment   132.97329   132.97329   132.97329    -0.00929    -0.00929    -0.00929
  Kinetic   514.08340   521.32052   528.14564     0.58114    -1.62269     1.10482
  Fock        0.00000     0.00000     0.00000     0.00000     0.00000     0.00000
  Total      -1.37090    -1.37090    -1.37090     0.01083     0.01083     0.01083
  in kB     -37.53903   -37.53903   -37.53903     0.29648     0.29648     0.29648

 VOLUME and BASIS-vectors are now :
  energy-cutoff  :      400.00
  volume of cell :       58.51
      direct lattice vectors                 reciprocal lattice vectors
     3.882200000  0.000000000  0.000000000     0.257585905  0.000000000  0.000000000
     0.000000000  3.882200000  0.000000000     0.000000000  0.257585905  0.000000000
     0.000000000  0.000000000  3.882200000     0.000000000  0.000000000  0.257585905

[...]

 FORCES acting on ions
    electron-ion (+dipol)            ewald-force                    non-local-force                 convergence-correction
   0.101E+02 0.101E+02 0.101E+02   -.104E+02 -.104E+02 -.104E+02   0.126E+00 0.126E+00 0.126E+00   0.364E-02 0.364E-02 0.364E-02
   -.310E+01 -.310E+01 -.310E+01   0.321E+01 0.321E+01 0.321E+01   -.107E-01 -.107E-01 -.107E-01   -.395E-02 -.395E-02 -.395E-02
   -.175E+02 0.570E+01 0.570E+01   0.196E+02 -.623E+01 -.623E+01   -.200E+01 0.504E+00 0.504E+00   -.190E-01 0.191E-02 0.191E-02
   0.570E+01 -.175E+02 0.570E+01   -.623E+01 0.196E+02 -.623E+01   0.504E+00 -.200E+01 0.504E+00   0.191E-02 -.190E-01 0.191E-02
   0.570E+01 0.570E+01 -.175E+02   -.623E+01 -.623E+01 0.196E+02   0.504E+00 0.504E+00 -.200E+01   0.191E-02 0.191E-02 -.190E-01
   0.902E+00 0.902E+00 0.903E+00   0.888E-15 -.888E-15 0.711E-14   -.882E+00 -.882E+00 -.882E+00   -.155E-01 -.155E-01 -.155E-01

 POSITION                                       TOTAL-FORCE (eV/Angst)
      0.03882      0.03882      0.03882        -0.109528     -0.109528     -0.109528
      1.94110      1.94110      1.94110         0.093061      0.093061      0.093061
      1.94110      0.00000      0.00000         0.077173     -0.030353     -0.030353
      0.00000      1.94110      0.00000        -0.030353      0.077173     -0.030353
      0.00000      0.00000      1.94110        -0.030353     -0.030353      0.077173
    total drift:                                0.005256      0.005256      0.005289

  FREE ENERGIE OF THE ION-ELECTRON SYSTEM (eV)
  free  energy   TOTEN  =       -40.06103139 eV

  energy  without entropy=      -40.06796808  energy(sigma->0) =      -40.06334362

 stress matrix after NEB project (eV)
     -1.37090      0.01083      0.01083
      0.01083     -1.37090      0.01083
      0.01083      0.01083     -1.37090
  FORCES: max atom, RMS     0.189709    0.130664
  FORCE total and by dimension    0.292173    0.109528
  Stress total and by dimension    2.374619    1.370901

[...]

 d Force = 0.3101094E-02[ 0.208E-02, 0.412E-02]  d Energy = 0.2970298E-02 0.131E-03
 d Force = 0.3982475E+00[ 0.315E+00, 0.481E+00]  d Ewald  = 0.3982521E+00-0.458E-05

 stress matrix after NEB project (eV)
     -1.45879      0.00948      0.00948
      0.00948     -1.45879      0.00948
      0.00948      0.00948     -1.45879
  FORCES: max atom, RMS     0.146283    0.082428
  FORCE total and by dimension    0.184314    0.084456
  Stress total and by dimension    2.526797    1.458785
 Steepest descent step on ions:
 trial-energy change:   -0.002970  1 .order   -0.003101   -0.004118   -0.002084
  (g-gl).g = 0.412E-02      g.g   = 0.412E-02  gl.gl    = 0.000E+00
 g(Force)  = 0.412E-02   g(Stress)= 0.000E+00 ortho     = 0.000E+00
 gamma     =   0.00000
 trial     =   1.00000
 opt step  =   2.02440  (harmonic =   2.02440) maximal distance =0.00908853
 next E    =   -40.065200   (d E  =  -0.00417)

[...]

 d Force = 0.2183513E-02[ 0.156E-02, 0.281E-02]  d Energy = 0.2167780E-02 0.157E-04
 d Force =-0.9059420E-01[-0.106E+00,-0.756E-01]  d Ewald  =-0.9059691E-01 0.271E-05

 stress matrix after NEB project (eV)
     -1.49797      0.00588      0.00588
      0.00588     -1.49797      0.00588
      0.00588      0.00588     -1.49797
  FORCES: max atom, RMS     0.094432    0.054431
  FORCE total and by dimension    0.121711    0.054520
  Stress total and by dimension    2.594603    1.497972
 Conjugate gradient step on ions:
 trial-energy change:   -0.002168  1 .order   -0.002184   -0.002809   -0.001558
  (g-gl).g = 0.203E-02      g.g   = 0.223E-02  gl.gl    = 0.412E-02
 g(Force)  = 0.223E-02   g(Stress)= 0.000E+00 ortho     = 0.200E-03
 gamma     =   0.49357
 trial     =   1.20488
 opt step  =   2.70536  (harmonic =   2.70536) maximal distance =0.01580004
 next E    =   -40.068289   (d E  =  -0.00315)

[...]

 stress matrix after NEB project (eV)
     -1.48469      0.01143      0.01143
      0.01143     -1.48469      0.01143
      0.01143      0.01143     -1.48469
  FORCES: max atom, RMS     0.077090    0.057589
  FORCE total and by dimension    0.128773    0.044508
  Stress total and by dimension    2.571708    1.484688
 Conjugate gradient step on ions:
 trial-energy change:   -0.000982  1 .order   -0.001001   -0.000993   -0.001009
  (g-gl).g = 0.855E-03      g.g   = 0.651E-03  gl.gl    = 0.223E-02
 g(Force)  = 0.651E-03   g(Stress)= 0.000E+00 ortho     = 0.230E-04
 gamma     =   0.38278
 trial     =   1.50498
 opt step  =   6.01991  (harmonic =   6.01991) maximal distance =0.02196752
 next E    =   -40.072377   (d E  =  -0.00410)

[...]

 d Force = 0.4224690E-02[ 0.288E-02, 0.557E-02]  d Energy = 0.4695610E-02-0.471E-03
 d Force =-0.2098271E+01[-0.280E+01,-0.140E+01]  d Ewald  =-0.2096453E+01-0.182E-02

[...]

 d Force =-0.1516564E-01[-0.361E-01, 0.575E-02]  d Energy =-0.9653715E-02-0.551E-02
 d Force =-0.8478376E+01[-0.114E+02,-0.559E+01]  d Ewald  =-0.8451595E+01-0.268E-01

[...]

 stress matrix after NEB project (eV)
     -0.98243      0.36584      0.36584
      0.36584     -0.98243      0.36584
      0.36584      0.36584     -0.98243
  FORCES: max atom, RMS     0.628662    0.395936
  FORCE total and by dimension    0.885340    0.362958
  Stress total and by dimension    1.923154    0.982429
 Steepest descent step on ions:
 trial-energy change:   -0.008594  1 .order   -0.008646   -0.009167   -0.008125
  (g-gl).g = 0.485E-01      g.g   = 0.478E-01  gl.gl    = 0.651E-03
 g(Force)  = 0.478E-01   g(Stress)= 0.000E+00 ortho     =-0.200E-02
 gamma     =   0.00000
 trial     =   0.19177
 opt step  =   0.76707  (harmonic =   1.68762) maximal distance =0.01409464
 next E    =   -40.107519   (d E  =  -0.04034)

[...]

 d Force = 0.1829081E-01[ 0.122E-01, 0.244E-01]  d Energy = 0.1820243E-01 0.884E-04
 d Force = 0.9376844E+00[ 0.552E+00, 0.132E+01]  d Ewald  = 0.9373820E+00 0.302E-03

[...]

 FEWALD executed in parallel

[...]

 eigenvalue-minimisations  :   924
 total energy-change (2. order) :-0.4643906E-01  (-0.6000951E-01)
 number of electron      36.0000054 magnetization
 augmentation part       11.1238596 magnetization

[...]

 Broyden mixing:
  rms(total) = 0.10564E-01    rms(broyden)= 0.10562E-01
  rms(prec ) = 0.14624E-01
  weight for this iteration     100.00

 eigenvalues of (default mixing * dielectric matrix)
  average eigenvalue GAMMA=   1.3257
  2.3837  0.9459  0.6474

[...]

----------------------------------------- Iteration   12(   5)  ---------------------------------------

 eigenvalue-minimisations  :  1100
 total energy-change (2. order) : 0.3879501E-04  (-0.4602839E-04)
 number of electron      36.0000054 magnetization
 augmentation part       11.1276033 magnetization

 Free energy of the ion-electron system (eV)
  alpha Z        PSCENC =       166.69949767
  Ewald energy   TEWEN  =     -2267.37249881
  -Hartree energ DENC   =      -693.89749889
  -exchange      EXHF   =         0.00000000
  -V(xc)+E(xc)   XCENC  =       137.83560639
  PAW double counting   =      3596.43699553    -3603.00231654
  entropy T*S    EENTRO =         0.00686967
  eigenvalues    EBANDS =      -328.84961664
  atomic energy  EATOM  =      2952.05274943
  free energy    TOTEN  =       -40.09021219 eV

  energy without entropy =      -40.09708186  energy(sigma->0) =      -40.09250208

 average (electrostatic) potential at core
  the test charge radii are     1.0397  1.2658  0.7215
  (the norm of the test charge is              1.0000)
       1 -52.9847       2 -45.4603       3 -70.1514       4 -70.1514       5 -70.1514

 E-fermi :   3.5836     XC(G=0): -10.9816     alpha+bet :-13.2781

[...]

 k-point    19 :      -0.4000    0.4000    0.4000
  band No.  band energies     occupation
      1     -28.9946      2.00000
      2     -28.9938      2.00000
      3     -28.9855      2.00000
      4     -16.5812      2.00000
      5     -16.5385      2.00000
      6     -16.5365      2.00000
      7     -12.5367      2.00000
      8     -12.4483      2.00000
      9     -12.4242      2.00000
     10      -0.8222      2.00000
     11      -0.6286      2.00000
     12      -0.5403      2.00000
     13      -0.4564      2.00000
     14      -0.2290      2.00000
     15      -0.0895      2.00000
     16       3.3327      2.07065
     17       3.3615      2.06625
     18       3.4616      1.84887
     19       7.9070     -0.00000
     20       8.0626     -0.00000
     21       8.0871     -0.00000
     22       9.5367      0.00000

 soft charge-density along one line, spin component           1
         0         1         2         3         4         5         6         7         8         9
 total charge-density along one line

------------------------ aborting loop because EDIFF is reached ----------------------------------------

  FORCE on cell =-STRESS in cart. coord.  units (eV):
  Direction    XX          YY          ZZ          XY          YZ          ZX
  Alpha Z   166.69950   166.69950   166.69950
  Ewald    -755.79149  -755.79149  -755.79149    -4.55339    -4.55339    -4.55339
  Hartree   231.27267   231.27267   231.27267    -2.20883    -2.20883    -2.20883
  E(xc)    -170.41497  -170.41497  -170.41497    -0.00881    -0.00881    -0.00881
  Local     -38.87271   -38.87271   -38.87271     6.74597     6.74597     6.74597
  n-local   -90.03156   -88.73587   -85.68575     0.02813    -0.18105     0.02649
  augment   132.77818   132.77818   132.77818    -0.02844    -0.02844    -0.02844
  Kinetic   515.43556   521.95530   528.46635     1.14215    -1.30005     1.26116
  Fock        0.00000     0.00000     0.00000     0.00000     0.00000     0.00000
  Total      -0.52748    -0.52748    -0.52748     0.27212     0.27212     0.27212
  in kB     -14.44392   -14.44392   -14.44392     7.45138     7.45138     7.45138

 VOLUME and BASIS-vectors are now :
  energy-cutoff  :      400.00
  volume of cell :       58.51
      direct lattice vectors                 reciprocal lattice vectors
     3.882200000  0.000000000  0.000000000     0.257585905  0.000000000  0.000000000
     0.000000000  3.882200000  0.000000000     0.000000000  0.257585905  0.000000000
     0.000000000  0.000000000  3.882200000     0.000000000  0.000000000  0.257585905

  length of vectors
     3.882200000  3.882200000  3.882200000     0.257585905  0.257585905  0.257585905

 FORCES acting on ions
    electron-ion (+dipol)            ewald-force                    non-local-force                 convergence-correction
   0.697E+01 0.697E+01 0.697E+01   -.701E+01 -.701E+01 -.701E+01   0.683E-02 0.683E-02 0.683E-02   -.237E-01 -.237E-01 -.237E-01
   0.358E+02 0.358E+02 0.358E+02   -.352E+02 -.352E+02 -.352E+02   -.577E+00 -.577E+00 -.577E+00   -.127E-01 -.127E-01 -.127E-01
   -.310E+02 -.323E+01 -.323E+01   0.353E+02 0.346E+01 0.346E+01   -.387E+01 -.420E+00 -.420E+00   -.565E-01 0.235E-01 0.235E-01
   -.323E+01 -.310E+02 -.323E+01   0.346E+01 0.353E+02 0.346E+01   -.420E+00 -.387E+01 -.420E+00   0.235E-01 -.565E-01 0.235E-01
   -.323E+01 -.323E+01 -.310E+02   0.346E+01 0.346E+01 0.353E+02   -.420E+00 -.420E+00 -.387E+01   0.235E-01 0.235E-01 -.565E-01
   0.532E+01 0.532E+01 0.532E+01   0.142E-13 -.355E-14 0.000E+00   -.528E+01 -.528E+01 -.528E+01   -.459E-01 -.459E-01 -.459E-01

 POSITION                                       TOTAL-FORCE (eV/Angst)
      0.04870      0.04870      0.04870        -0.059703     -0.059703     -0.059703
      2.07510      2.07510      2.07510        -0.033931     -0.033931     -0.033931
      1.89778     -0.05029     -0.05029         0.436445     -0.171405     -0.171405
     -0.05029      1.89778     -0.05029        -0.171405      0.436445     -0.171405
     -0.05029     -0.05029      1.89778        -0.171405     -0.171405      0.436445
    total drift:                               -0.003883     -0.003883     -0.003881

  FREE ENERGIE OF THE ION-ELECTRON SYSTEM (eV)
  free  energy   TOTEN  =       -40.09021219 eV

  energy  without entropy=      -40.09708186  energy(sigma->0) =      -40.09250208

 d Force =-0.5869810E-02[-0.362E-01, 0.244E-01]  d Energy =-0.3766910E-02-0.210E-02
 d Force =-0.4303899E+00[-0.196E+01, 0.110E+01]  d Ewald  =-0.4326358E+00 0.225E-02

 stress matrix after NEB project (eV)
     -0.52748      0.27212      0.27212
      0.27212     -0.52748      0.27212
      0.27212      0.27212     -0.52748
  FORCES: max atom, RMS     0.499244    0.390354
  FORCE total and by dimension    0.872857    0.436445
  Stress total and by dimension    1.130932    0.527483

 reached required accuracy - stopping structural energy minimisation
 writing wavefunctions