 vasp.5.3.5 31Mar14 (build Dec 17 2015 22:09:37) complex

 executed on             LinuxIFC date 2017.03.19  05:27:32

 INCAR:
 POTCAR:    PAW_PBE Ti_pv 07Sep2000
 POTCAR:    PAW_PBE Ca_pv 06Sep2000
 POTCAR:    PAW_PBE O 08Apr2002

 POTCAR:    PAW_PBE Ti_pv 07Sep2000
   VRHFIN =Ti: d3 s1

   TITEL  = PAW_PBE Ti_pv 07Sep2000
   POMASS =   47.880; ZVAL   =   10.000    mass and valenz
   ENMAX  =  222.335; ENMIN  =  166.751 eV

 POTCAR:    PAW_PBE Ca_pv 06Sep2000
   VRHFIN =Ca: p6s2d0.01

   TITEL  = PAW_PBE Ca_pv 06Sep2000
   POMASS =   40.078; ZVAL   =    8.000    mass and valenz
   ENMAX  =  119.559; ENMIN  =   89.670 eV

 POTCAR:    PAW_PBE O 08Apr2002
   VRHFIN =O: s2p4

   TITEL  = PAW_PBE O 08Apr2002
   POMASS =   16.000; ZVAL   =    6.000    mass and valenz
   ENMAX  =  400.000; ENMIN  =  300.000 eV

  PAW_PBE Ti_pv 07Sep2000               :
  PAW_PBE Ca_pv 06Sep2000               :
  PAW_PBE O 08Apr2002                   :

 POSCAR: CaTiO3
  positions in direct lattice
  velocities in cartesian coordinates
 exchange correlation table for  LEXCH =        8
   RHO(1)=    0.500       N(1)  =     2000
   RHO(2)=  100.500       N(2)  =     4000

 VTST: version 3.1, (03/28/14)

 CHAIN: initializing optimizer

 OPT: Using VASP Conjugate-Gradient optimizer
 CHAIN: Read ICHAIN            0

 POSCAR: CaTiO3
  positions in direct lattice
  velocities in cartesian coordinates

 ion  position               nearest neighbor table
   1  0.010  0.020  0.030-   5 1.83   4 1.87   3 1.91   3 1.98   4 2.02   5 2.06   2 3.23   2 3.27
                             2 3.32   2 3.37   2 3.37   2 3.41   2 3.45   2 3.50
   2  0.500  0.500  0.500-   3 2.75   4 2.75   5 2.75   3 2.75   4 2.75   3 2.75   5 2.75   3 2.75
                             4 2.75   5 2.75   4 2.75   5 2.75   1 3.23   1 3.27   1 3.32   1 3.37
   3  0.500  0.000  0.000-   1 1.91   1 1.98   2 2.75   2 2.75   2 2.75   2 2.75
   4  0.000  0.500  0.000-   1 1.87   1 2.02   2 2.75   2 2.75   2 2.75   2 2.75
   5  0.000  0.000  0.500-   1 1.83   1 2.06   2 2.75   2 2.75   2 2.75   2 2.75

  LATTYP: Found a simple cubic cell.
 ALAT       =     3.8822000000

  Lattice vectors:

 A1 = (   3.8822000000,   0.0000000000,   0.0000000000)
 A2 = (   0.0000000000,   3.8822000000,   0.0000000000)
 A3 = (   0.0000000000,   0.0000000000,   3.8822000000)

Analysis of symmetry for initial positions (statically):
 Subroutine PRICEL returns:
 Original cell was already a primitive cell.

 Routine SETGRP: Setting up the symmetry group for a
 simple cubic supercell.

 Subroutine GETGRP returns: Found  1 space group operations
 (whereof  1 operations were pure point group operations)
 out of a pool of 48 trial point group operations.

The static configuration has the point symmetry C_1 .

Analysis of symmetry for dynamics (positions and initial velocities):
 Subroutine PRICEL returns:
 Original cell was already a primitive cell.

 Routine SETGRP: Setting up the symmetry group for a
 simple cubic supercell.

 Subroutine GETGRP returns: Found  1 space group operations
 (whereof  1 operations were pure point group operations)
 out of a pool of 48 trial point group operations.

The dynamic configuration has the point symmetry C_1 .

 KPOINTS: k-points

Automatic generation of k-mesh.
Space group operators:
 irot       det(A)        alpha          n_x          n_y          n_z        tau_x        tau_y        tau_z
    1     1.000000     0.000000     1.000000     0.000000     0.000000     0.000000     0.000000     0.000000

 Subroutine IBZKPT returns following result:

 Found     63 irreducible k-points:

 Following reciprocal coordinates:
            Coordinates               Weight
  0.000000  0.000000  0.000000      1.000000
  0.200000  0.000000  0.000000      2.000000
  0.400000  0.000000  0.000000      2.000000
  0.000000  0.200000  0.000000      2.000000
  0.200000  0.200000  0.000000      2.000000
  0.400000  0.200000  0.000000      2.000000
 -0.400000  0.200000  0.000000      2.000000
 -0.200000  0.200000  0.000000      2.000000
  0.000000  0.400000  0.000000      2.000000
  0.200000  0.400000  0.000000      2.000000
  0.400000  0.400000  0.000000      2.000000
 -0.400000  0.400000  0.000000      2.000000
 -0.200000  0.400000  0.000000      2.000000
  0.000000  0.000000  0.200000      2.000000
  0.200000  0.000000  0.200000      2.000000
  0.400000  0.000000  0.200000      2.000000
 -0.400000  0.000000  0.200000      2.000000
 -0.200000  0.000000  0.200000      2.000000
  0.000000  0.200000  0.200000      2.000000
  0.200000  0.200000  0.200000      2.000000
  0.400000  0.200000  0.200000      2.000000
 -0.400000  0.200000  0.200000      2.000000
 -0.200000  0.200000  0.200000      2.000000
  0.000000  0.400000  0.200000      2.000000
  0.200000  0.400000  0.200000      2.000000
  0.400000  0.400000  0.200000      2.000000
 -0.400000  0.400000  0.200000      2.000000
 -0.200000  0.400000  0.200000      2.000000
  0.000000 -0.400000  0.200000      2.000000
  0.200000 -0.400000  0.200000      2.000000
  0.400000 -0.400000  0.200000      2.000000
 -0.400000 -0.400000  0.200000      2.000000
 -0.200000 -0.400000  0.200000      2.000000
  0.000000 -0.200000  0.200000      2.000000
  0.200000 -0.200000  0.200000      2.000000
  0.400000 -0.200000  0.200000      2.000000
 -0.400000 -0.200000  0.200000      2.000000
 -0.200000 -0.200000  0.200000      2.000000
  0.000000  0.000000  0.400000      2.000000
  0.200000  0.000000  0.400000      2.000000
  0.400000  0.000000  0.400000      2.000000
 -0.400000  0.000000  0.400000      2.000000
 -0.200000  0.000000  0.400000      2.000000
  0.000000  0.200000  0.400000      2.000000
  0.200000  0.200000  0.400000      2.000000
  0.400000  0.200000  0.400000      2.000000
 -0.400000  0.200000  0.400000      2.000000
 -0.200000  0.200000  0.400000      2.000000
  0.000000  0.400000  0.400000      2.000000
  0.200000  0.400000  0.400000      2.000000
  0.400000  0.400000  0.400000      2.000000
 -0.400000  0.400000  0.400000      2.000000
 -0.200000  0.400000  0.400000      2.000000
  0.000000 -0.400000  0.400000      2.000000
  0.200000 -0.400000  0.400000      2.000000
  0.400000 -0.400000  0.400000      2.000000
 -0.400000 -0.400000  0.400000      2.000000
 -0.200000 -0.400000  0.400000      2.000000
  0.000000 -0.200000  0.400000      2.000000
  0.200000 -0.200000  0.400000      2.000000
  0.400000 -0.200000  0.400000      2.000000
 -0.400000 -0.200000  0.400000      2.000000
 -0.200000 -0.200000  0.400000      2.000000

 Following cartesian coordinates:
            Coordinates               Weight
  0.000000  0.000000  0.000000      1.000000
  0.200000  0.000000  0.000000      2.000000
  0.400000  0.000000  0.000000      2.000000
  0.000000  0.200000  0.000000      2.000000
  0.200000  0.200000  0.000000      2.000000
  0.400000  0.200000  0.000000      2.000000
 -0.400000  0.200000  0.000000      2.000000
 -0.200000  0.200000  0.000000      2.000000
  0.000000  0.400000  0.000000      2.000000
  0.200000  0.400000  0.000000      2.000000
  0.400000  0.400000  0.000000      2.000000
 -0.400000  0.400000  0.000000      2.000000
 -0.200000  0.400000  0.000000      2.000000
  0.000000  0.000000  0.200000      2.000000
  0.200000  0.000000  0.200000      2.000000
  0.400000  0.000000  0.200000      2.000000
 -0.400000  0.000000  0.200000      2.000000
 -0.200000  0.000000  0.200000      2.000000
  0.000000  0.200000  0.200000      2.000000
  0.200000  0.200000  0.200000      2.000000
  0.400000  0.200000  0.200000      2.000000
 -0.400000  0.200000  0.200000      2.000000
 -0.200000  0.200000  0.200000      2.000000
  0.000000  0.400000  0.200000      2.000000
  0.200000  0.400000  0.200000      2.000000
  0.400000  0.400000  0.200000      2.000000
 -0.400000  0.400000  0.200000      2.000000
 -0.200000  0.400000  0.200000      2.000000
  0.000000 -0.400000  0.200000      2.000000
  0.200000 -0.400000  0.200000      2.000000
  0.400000 -0.400000  0.200000      2.000000
 -0.400000 -0.400000  0.200000      2.000000
 -0.200000 -0.400000  0.200000      2.000000
  0.000000 -0.200000  0.200000      2.000000
  0.200000 -0.200000  0.200000      2.000000
  0.400000 -0.200000  0.200000      2.000000
 -0.400000 -0.200000  0.200000      2.000000
 -0.200000 -0.200000  0.200000      2.000000
  0.000000  0.000000  0.400000      2.000000
  0.200000  0.000000  0.400000      2.000000
  0.400000  0.000000  0.400000      2.000000
 -0.400000  0.000000  0.400000      2.000000
 -0.200000  0.000000  0.400000      2.000000
  0.000000  0.200000  0.400000      2.000000
  0.200000  0.200000  0.400000      2.000000
  0.400000  0.200000  0.400000      2.000000
 -0.400000  0.200000  0.400000      2.000000
 -0.200000  0.200000  0.400000      2.000000
  0.000000  0.400000  0.400000      2.000000
  0.200000  0.400000  0.400000      2.000000
  0.400000  0.400000  0.400000      2.000000
 -0.400000  0.400000  0.400000      2.000000
 -0.200000  0.400000  0.400000      2.000000
  0.000000 -0.400000  0.400000      2.000000
  0.200000 -0.400000  0.400000      2.000000
  0.400000 -0.400000  0.400000      2.000000
 -0.400000 -0.400000  0.400000      2.000000
 -0.200000 -0.400000  0.400000      2.000000
  0.000000 -0.200000  0.400000      2.000000
  0.200000 -0.200000  0.400000      2.000000
  0.400000 -0.200000  0.400000      2.000000
 -0.400000 -0.200000  0.400000      2.000000
 -0.200000 -0.200000  0.400000      2.000000

 I would recommend the setting:
   dimension x,y,z NGX =    19 NGY =   19 NGZ =   19
 SYSTEM =  unknown system
 POSCAR =  CaTiO3

 Startparameter for this run:
   NWRITE =      2    write-flag & timer
   PREC   = normal    normal or accurate (medium, high low for compatibility)
   ISTART =      1    job   : 0-new  1-cont  2-samecut
   ICHARG =      0    charge: 1-file 2-atom 10-const
   ISPIN  =      1    spin polarized calculation?
   LNONCOLLINEAR =      F non collinear calculations
   LSORBIT =      F    spin-orbit coupling
   INIWAV =      1    electr: 0-lowe 1-rand  2-diag
   LASPH  =      F    aspherical Exc in radial PAW
   METAGGA=      F    non-selfconsistent MetaGGA calc.

 Electronic Relaxation 1
   ENCUT  =  400.0 eV  29.40 Ry    5.42 a.u.   6.33  6.33  6.33*2*pi/ulx,y,z
   ENINI  =  400.0     initial cutoff
   ENAUG  =  605.4 eV  augmentation charge cutoff
   NELM   =     60;   NELMIN=  2; NELMDL=  0     # of ELM steps
   EDIFF  = 0.1E-03   stopping-criterion for ELM
   LREAL  =      F    real-space projection
   NLSPLINE    = F    spline interpolate recip. space projectors
   LCOMPAT=      F    compatible to vasp.4.4
   GGA_COMPAT  = T    GGA compatible to vasp.4.4-vasp.4.6
   LMAXPAW     = -100 max onsite density
   LMAXMIX     =    2 max onsite mixed and CHGCAR
   VOSKOWN=      0    Vosko Wilk Nusair interpolation
   ROPT   =    0.00000   0.00000   0.00000
 Ionic relaxation
   EDIFFG = 0.1E-02   stopping-criterion for IOM
   NSW    =   1024    number of steps for IOM
   NBLOCK =      1;   KBLOCK =   1024    inner block; outer block
   IBRION =      2    ionic relax: 0-MD 1-quasi-New 2-CG
   NFREE  =      1    steps in history (QN), initial steepest desc. (CG)
   ISIF   =      2    stress and relaxation
[...]

[...]

 eigenvalues of (default mixing * dielectric matrix)
  average eigenvalue GAMMA=   1.1935
  1.1935

[...]

 average (electrostatic) potential at core
  the test charge radii are     1.0397  1.2658  0.7215
  (the norm of the test charge is              1.0000)
       1 -52.9591       2 -45.6550       3 -70.0634       4 -70.1026       5 -70.1702

 E-fermi :   3.6681     XC(G=0): -11.0058     alpha+bet :-13.2781

 k-point     1 :       0.0000    0.0000    0.0000
  band No.  band energies     occupation
      1     -28.9209      2.00000
      2     -28.8939      2.00000
      3     -28.8793      2.00000
      4     -16.6267      2.00000
      5     -16.6235      2.00000
      6     -16.6178      2.00000
      7     -13.8647      2.00000
      8     -12.7818      2.00000
      9     -12.7343      2.00000
     10       0.6578      2.00000
     11       0.6700      2.00000
     12       0.6948      2.00000
     13       2.4063      2.00000
     14       2.4114      2.00000
     15       2.5548      2.00000
     16       3.0179      2.00004
     17       3.0887      2.00033
     18       3.1324      2.00101
     19       5.8143     -0.00000
     20       5.9878     -0.00000
     21       6.0703     -0.00000
     22       8.2667     -0.00000

[...]

 soft charge-density along one line, spin component           1
         0         1         2         3         4         5         6         7         8         9
 total charge-density along one line

------------------------ aborting loop because EDIFF is reached ----------------------------------------

  FORCE on cell =-STRESS in cart. coord.  units (eV):
  Direction    XX          YY          ZZ          XY          YZ          ZX
  Alpha Z   166.69950   166.69950   166.69950
  Ewald    -762.57650  -759.10358  -753.27963    -2.05165    -6.28837    -3.11938
  Hartree   227.52435   228.56988   230.46127    -0.90083    -2.71804    -1.35592
  E(xc)    -170.27109  -170.26717  -170.26089    -0.00376    -0.01101    -0.00554
  Local     -28.39304   -32.94098   -40.74013     2.98283     9.04082     4.50222
  n-local   -88.21627   -88.21013   -88.21221    -0.02973    -0.09927    -0.04811
  augment   132.81635   132.86267   132.93192    -0.01813    -0.04924    -0.02502
  Kinetic   521.04255   521.33850   521.89201     0.03939     0.17893     0.07963
  Fock        0.00000     0.00000     0.00000     0.00000     0.00000     0.00000
  Total      -1.37416    -1.05131    -0.50816     0.01812     0.05381     0.02788
  in kB     -37.62819   -28.78775   -13.91483     0.49627     1.47356     0.76334

 VOLUME and BASIS-vectors are now :
  energy-cutoff  :      400.00
  volume of cell :       58.51
      direct lattice vectors                 reciprocal lattice vectors
     3.882200000  0.000000000  0.000000000     0.257585905  0.000000000  0.000000000
     0.000000000  3.882200000  0.000000000     0.000000000  0.257585905  0.000000000
     0.000000000  0.000000000  3.882200000     0.000000000  0.000000000  0.257585905

[...]

 FORCES acting on ions
    electron-ion (+dipol)            ewald-force                    non-local-force                 convergence-correction
   0.974E+01 0.197E+02 0.303E+02   -.996E+01 -.203E+02 -.313E+02   0.733E-01 0.168E+00 0.346E+00   0.118E-02 0.101E-01 0.138E-01
   -.313E+01 -.624E+01 -.929E+01   0.324E+01 0.645E+01 0.960E+01   -.921E-02 -.188E-01 -.285E-01   0.325E-02 0.666E-02 0.954E-02
   -.173E+02 0.113E+02 0.169E+02   0.194E+02 -.124E+02 -.185E+02   -.194E+01 0.103E+01 0.160E+01   -.630E-03 0.157E-02 0.233E-02
   0.572E+01 -.348E+02 0.171E+02   -.626E+01 0.390E+02 -.188E+02   0.515E+00 -.391E+01 0.163E+01   0.829E-03 0.298E-02 0.110E-02
   0.583E+01 0.117E+02 -.526E+02   -.639E+01 -.128E+02 0.590E+02   0.536E+00 0.109E+01 -.592E+01   -.215E-03 -.158E-02 0.931E-03
   0.826E+00 0.161E+01 0.235E+01   -.888E-15 0.355E-14 -.711E-14   -.828E+00 -.164E+01 -.238E+01   0.442E-02 0.198E-01 0.278E-01

 POSITION                                       TOTAL-FORCE (eV/Angst)
      0.03882      0.07764      0.11647        -0.152219     -0.372225     -0.698894
      1.94110      1.94110      1.94110         0.096278      0.193401      0.285420
      1.94110      0.00000      0.00000         0.102961     -0.036246     -0.037376
      0.00000      1.94110      0.00000        -0.023287      0.252351     -0.037897
      0.00000      0.00000      1.94110        -0.023733     -0.037281      0.488747
    total drift:                                0.002348     -0.005017      0.003712

  FREE ENERGIE OF THE ION-ELECTRON SYSTEM (eV)
  free  energy   TOTEN  =       -40.02505589 eV

  energy  without entropy=      -40.03192251  energy(sigma->0) =      -40.02734476

 stress matrix after NEB project (eV)
     -1.37416      0.01812      0.02788
      0.01812     -1.05131      0.05381
      0.02788      0.05381     -0.50816
  FORCES: max atom, RMS     0.806334    0.468639
  FORCE total and by dimension    1.047908    0.698894
  Stress total and by dimension    1.805489    1.374157

[...]

 d Force = 0.3122367E-01[ 0.947E-02, 0.530E-01]  d Energy = 0.2983788E-01 0.139E-02
 d Force = 0.2671373E+01[ 0.155E+01, 0.379E+01]  d Ewald  = 0.2670908E+01 0.465E-03

 stress matrix after NEB project (eV)
     -1.52041      0.01777      0.02545
      0.01777     -1.39800      0.04885
      0.02545      0.04885     -1.28682
  FORCES: max atom, RMS     0.277082    0.195019
  FORCE total and by dimension    0.436076    0.216652
  Stress total and by dimension    2.434881    1.520406
 Steepest descent step on ions:
 trial-energy change:   -0.029838  1 .order   -0.031224   -0.052976   -0.009472
  (g-gl).g = 0.530E-01      g.g   = 0.530E-01  gl.gl    = 0.000E+00
 g(Force)  = 0.530E-01   g(Stress)= 0.000E+00 ortho     = 0.000E+00
 gamma     =   0.00000
 trial     =   1.00000
 opt step  =   1.28887  (harmonic =   1.21771) maximal distance =0.03038969
 next E    =   -40.056228   (d E  =  -0.03117)

[...]

 d Force = 0.9292203E-02[ 0.606E-02, 0.125E-01]  d Energy = 0.9342785E-02-0.506E-04
 d Force =-0.2914537E+00[-0.281E+00,-0.302E+00]  d Ewald  =-0.2915092E+00 0.556E-04

 stress matrix after NEB project (eV)
     -1.52736      0.00929      0.01134
      0.00929     -1.46397      0.02041
      0.01134      0.02041     -1.42579
  FORCES: max atom, RMS     0.175710    0.105004
  FORCE total and by dimension    0.234797    0.129669
  Stress total and by dimension    2.551504    1.527357
 Conjugate gradient step on ions:
 trial-energy change:   -0.009343  1 .order   -0.009292   -0.012524   -0.006060
  (g-gl).g = 0.111E-01      g.g   = 0.117E-01  gl.gl    = 0.530E-01
 g(Force)  = 0.117E-01   g(Stress)= 0.000E+00 ortho     = 0.638E-03
 gamma     =   0.20893
 trial     =   1.05777
 opt step  =   2.04951  (harmonic =   2.04951) maximal distance =0.02550469
 next E    =   -40.068556   (d E  =  -0.01213)

[...]

 d Force = 0.1547329E-02[ 0.130E-02, 0.180E-02]  d Energy = 0.1528375E-02 0.190E-04
 d Force =-0.6551511E-02[-0.443E-01, 0.312E-01]  d Ewald  =-0.6550428E-02-0.108E-05

[...]

 d Force = 0.1377510E-02[-0.579E-03, 0.333E-02]  d Energy = 0.1228225E-02 0.149E-03
 d Force =-0.3637986E+00[-0.614E+00,-0.114E+00]  d Ewald  =-0.3637509E+00-0.477E-04

[...]

 stress matrix after NEB project (eV)
     -1.48120      0.02066      0.02521
      0.02066     -1.44857      0.04268
      0.02521      0.04268     -1.45702
  FORCES: max atom, RMS     0.168974    0.114272
  FORCE total and by dimension    0.255519    0.159343
  Stress total and by dimension    2.533965    1.481205
 Conjugate gradient step on ions:
 trial-energy change:   -0.000789  1 .order   -0.000807   -0.000803   -0.000811
  (g-gl).g = 0.307E-02      g.g   = 0.282E-02  gl.gl    = 0.141E-02
 g(Force)  = 0.282E-02   g(Stress)= 0.000E+00 ortho     =-0.179E-03
 gamma     =   2.17727
 trial     =   0.32997
 opt step  =   1.31990  (harmonic =   1.31990) maximal distance =0.01883395
 next E    =   -40.074752   (d E  =  -0.00327)

[...]

 d Force = 0.7469628E-03[-0.846E-03, 0.234E-02]  d Energy = 0.5041654E-03 0.243E-03
 d Force = 0.2505576E+01[ 0.228E+01, 0.273E+01]  d Ewald  = 0.2505187E+01 0.390E-03

[...]

 d Force = 0.5695807E-02[ 0.494E-02, 0.645E-02]  d Energy = 0.5730138E-02-0.343E-04
 d Force =-0.1873938E+01[-0.201E+01,-0.173E+01]  d Ewald  =-0.1873836E+01-0.102E-03

[...]

 d Force = 0.3485897E-02[-0.292E-02, 0.989E-02]  d Energy = 0.4501021E-02-0.102E-02
 d Force =-0.4597705E+01[-0.517E+01,-0.403E+01]  d Ewald  =-0.4596883E+01-0.822E-03

[...]

 stress matrix after NEB project (eV)
     -0.99220      0.25658      0.31277
      0.25658     -0.50165      0.55616
      0.31277      0.55616     -0.32113
  FORCES: max atom, RMS     0.110474    0.063186
  FORCE total and by dimension    0.141289    0.070701
  Stress total and by dimension    1.511675    0.992197
 Conjugate gradient step on ions:
 trial-energy change:   -0.000998  1 .order   -0.001010   -0.001196   -0.000824
  (g-gl).g = 0.630E-03      g.g   = 0.168E-02  gl.gl    = 0.114E-01
 g(Force)  = 0.168E-02   g(Stress)= 0.000E+00 ortho     =-0.122E-02
 gamma     =   0.05500
 trial     =   0.74072
 opt step  =   2.38011  (harmonic =   2.38011) maximal distance =0.00924850
 next E    =   -40.106006   (d E  =  -0.00192)

[...]

 d Force = 0.8496595E-03[ 0.686E-03, 0.101E-02]  d Energy = 0.8071250E-03 0.425E-04
 d Force = 0.4292476E+00[ 0.420E+00, 0.439E+00]  d Ewald  = 0.4292396E+00 0.805E-05

 stress matrix after NEB project (eV)
     -1.03824      0.23417      0.28284
      0.23417     -0.68060      0.49397
      0.28284      0.49397     -0.47652
  FORCES: max atom, RMS     0.073929    0.052497
  FORCE total and by dimension    0.117386    0.064421
  Stress total and by dimension    1.589313    1.038238
 Conjugate gradient step on ions:
 trial-energy change:   -0.000807  1 .order   -0.000850   -0.001014   -0.000686
  (g-gl).g = 0.130E-02      g.g   = 0.142E-02  gl.gl    = 0.168E-02
 g(Force)  = 0.142E-02   g(Stress)= 0.000E+00 ortho     = 0.721E-04
 gamma     =   0.77104
 trial     =   0.68524
 opt step  =   2.11852  (harmonic =   2.11852) maximal distance =0.01025152
 next E    =   -40.107560   (d E  =  -0.00157)

 FEWALD executed in parallel

[...]

 eigenvalue-minimisations  :  3322
 total energy-change (2. order) :-0.2151324E-02  (-0.2709692E-02)
 number of electron      36.0000011 magnetization
 augmentation part       11.1253374 magnetization

[...]

 Broyden mixing:
  rms(total) = 0.68176E-02    rms(broyden)= 0.68165E-02
  rms(prec ) = 0.11113E-01
  weight for this iteration     100.00

 eigenvalues of (default mixing * dielectric matrix)
  average eigenvalue GAMMA=   1.0401
  1.0401  1.0401

[...]

----------------------------------------- Iteration   21(   4)  ---------------------------------------

 eigenvalue-minimisations  :  3806
 total energy-change (2. order) : 0.3893022E-04  (-0.1712073E-04)
 number of electron      36.0000011 magnetization
 augmentation part       11.1266570 magnetization

 Free energy of the ion-electron system (eV)
  alpha Z        PSCENC =       166.69949767
  Ewald energy   TEWEN  =     -2268.11051812
  -Hartree energ DENC   =      -693.14746955
  -exchange      EXHF   =         0.00000000
  -V(xc)+E(xc)   XCENC  =       137.80575175
  PAW double counting   =      3566.24408718    -3572.78427077
  entropy T*S    EENTRO =         0.00686988
  eigenvalues    EBANDS =      -328.87405455
  atomic energy  EATOM  =      2952.05274943
  free energy    TOTEN  =       -40.10735709 eV

  energy without entropy =      -40.11422697  energy(sigma->0) =      -40.10964705

 average (electrostatic) potential at core
  the test charge radii are     1.0397  1.2658  0.7215
  (the norm of the test charge is              1.0000)
       1 -53.0403       2 -45.4019       3 -70.1417       4 -70.1615       5 -70.1739

 E-fermi :   3.5758     XC(G=0): -10.9819     alpha+bet :-13.2781

[...]

 k-point    63 :      -0.2000   -0.2000    0.4000
  band No.  band energies     occupation
      1     -29.0394      2.00000
      2     -28.9912      2.00000
      3     -28.9848      2.00000
      4     -16.6018      2.00000
      5     -16.4631      2.00000
      6     -16.4313      2.00000
      7     -13.0268      2.00000
      8     -12.6574      2.00000
      9     -12.4596      2.00000
     10      -0.7003      2.00000
     11      -0.2436      2.00000
     12       0.0117      2.00000
     13       0.4547      2.00000
     14       0.8441      2.00000
     15       1.4062      2.00000
     16       2.5205      2.00000
     17       2.5448      2.00000
     18       2.8092      2.00000
     19       6.9043     -0.00000
     20       7.4164     -0.00000
     21       7.5910     -0.00000
     22       9.7197      0.00000

 soft charge-density along one line, spin component           1
         0         1         2         3         4         5         6         7         8         9
 total charge-density along one line

------------------------ aborting loop because EDIFF is reached ----------------------------------------

  FORCE on cell =-STRESS in cart. coord.  units (eV):
  Direction    XX          YY          ZZ          XY          YZ          ZX
  Alpha Z   166.69950   166.69950   166.69950
  Ewald    -751.20265  -757.18192  -759.72772    -2.06235    -6.04331    -3.07544
  Hartree   234.83239   230.23655   228.02929    -0.95646    -3.04827    -1.47104
  E(xc)    -170.37814  -170.38391  -170.38549    -0.00486    -0.01402    -0.00701
  Local     -47.15560   -36.56450   -31.80015     3.00945     9.14465     4.54979
  n-local   -88.12811   -88.21863   -88.24984    -0.00540     0.01568    -0.00357
  augment   132.77604   132.79036   132.79774    -0.01408    -0.04719    -0.02217
  Kinetic   521.52069   521.91949   522.12574     0.24423     0.43025     0.28374
  Fock        0.00000     0.00000     0.00000     0.00000     0.00000     0.00000
  Total      -1.03588    -0.70306    -0.51094     0.21053     0.43779     0.25431
  in kB     -28.36522   -19.25166   -13.99089     5.76478    11.98796     6.96358

 VOLUME and BASIS-vectors are now :
  energy-cutoff  :      400.00
  volume of cell :       58.51
      direct lattice vectors                 reciprocal lattice vectors
     3.882200000  0.000000000  0.000000000     0.257585905  0.000000000  0.000000000
     0.000000000  3.882200000  0.000000000     0.000000000  0.257585905  0.000000000
     0.000000000  0.000000000  3.882200000     0.000000000  0.000000000  0.257585905

  length of vectors
     3.882200000  3.882200000  3.882200000     0.257585905  0.257585905  0.257585905

 FORCES acting on ions
    electron-ion (+dipol)            ewald-force                    non-local-force                 convergence-correction
   -.914E+00 -.490E+01 -.605E+01   0.800E+00 0.475E+01 0.586E+01   0.961E-01 0.144E+00 0.172E+00   -.129E-02 -.753E-02 -.701E-02
   0.256E+02 0.420E+02 0.486E+02   -.251E+02 -.413E+02 -.479E+02   -.421E+00 -.661E+00 -.760E+00   -.289E-02 -.327E-02 -.356E-02
   -.179E+02 -.621E+01 -.704E+01   0.208E+02 0.637E+01 0.719E+01   -.289E+01 -.996E-01 -.102E+00   0.387E-02 -.661E-01 -.581E-01
   -.217E+01 -.228E+02 -.513E+01   0.209E+01 0.268E+02 0.501E+01   0.117E+00 -.400E+01 0.153E+00   -.311E-01 0.199E-01 -.259E-01
   -.159E+01 -.358E+01 -.253E+02   0.143E+01 0.337E+01 0.298E+02   0.188E+00 0.239E+00 -.449E+01   -.203E-01 -.233E-01 0.136E-01
   0.297E+01 0.446E+01 0.511E+01   0.244E-14 -.444E-15 0.355E-14   -.291E+01 -.438E+01 -.503E+01   -.517E-01 -.803E-01 -.810E-01

 POSITION                                       TOTAL-FORCE (eV/Angst)
      0.04558      0.06462      0.07677        -0.020098     -0.016852     -0.027730
      2.03041      2.09356      2.12464        -0.002903     -0.005105     -0.000414
      1.92531     -0.04815     -0.05441         0.010668     -0.002431     -0.010639
     -0.03770      1.92065     -0.07098         0.006197      0.014979      0.002110
     -0.04257     -0.07084      1.92265         0.006136      0.009409      0.036673
    total drift:                                0.006630      0.000744     -0.001274

  FREE ENERGIE OF THE ION-ELECTRON SYSTEM (eV)
  free  energy   TOTEN  =       -40.10735709 eV

  energy  without entropy=      -40.11422697  energy(sigma->0) =      -40.10964705

 d Force = 0.6743705E-03[-0.856E-04, 0.143E-02]  d Energy = 0.5572705E-03 0.117E-03
 d Force = 0.8356334E+00[ 0.794E+00, 0.878E+00]  d Ewald  = 0.8355639E+00 0.694E-04

 stress matrix after NEB project (eV)
     -1.03588      0.21053      0.25431
      0.21053     -0.70306      0.43779
      0.25431      0.43779     -0.51094
  FORCES: max atom, RMS     0.038354    0.026316
  FORCE total and by dimension    0.058845    0.036673
  Stress total and by dimension    1.558751    1.035879

 reached required accuracy - stopping structural energy minimisation
 writing wavefunctions