 vasp.5.3.5 31Mar14 (build Dec 17 2015 22:09:37) complex

 executed on             LinuxIFC date 2017.03.19  05:28:58

 INCAR:
 POTCAR:    PAW_PBE Ti_pv 07Sep2000
 POTCAR:    PAW_PBE Ca_pv 06Sep2000
 POTCAR:    PAW_PBE O 08Apr2002

 POTCAR:    PAW_PBE Ti_pv 07Sep2000
   VRHFIN =Ti: d3 s1

   TITEL  = PAW_PBE Ti_pv 07Sep2000
   POMASS =   47.880; ZVAL   =   10.000    mass and valenz
   ENMAX  =  222.335; ENMIN  =  166.751 eV

 POTCAR:    PAW_PBE Ca_pv 06Sep2000
   VRHFIN =Ca: p6s2d0.01

   TITEL  = PAW_PBE Ca_pv 06Sep2000
   POMASS =   40.078; ZVAL   =    8.000    mass and valenz
   ENMAX  =  119.559; ENMIN  =   89.670 eV

 POTCAR:    PAW_PBE O 08Apr2002
   VRHFIN =O: s2p4

   TITEL  = PAW_PBE O 08Apr2002
   POMASS =   16.000; ZVAL   =    6.000    mass and valenz
   ENMAX  =  400.000; ENMIN  =  300.000 eV

  PAW_PBE Ti_pv 07Sep2000               :
  PAW_PBE Ca_pv 06Sep2000               :
  PAW_PBE O 08Apr2002                   :

 POSCAR: CaTiO3
  positions in direct lattice
  velocities in cartesian coordinates
 exchange correlation table for  LEXCH =        8
   RHO(1)=    0.500       N(1)  =     2000
   RHO(2)=  100.500       N(2)  =     4000

 VTST: version 3.1, (03/28/14)

 CHAIN: initializing optimizer

 OPT: Using VASP Conjugate-Gradient optimizer
 CHAIN: Read ICHAIN            0

 POSCAR: CaTiO3
  positions in direct lattice
  velocities in cartesian coordinates

 ion  position               nearest neighbor table
   1  0.000  0.000  0.000-   3 1.94   4 1.94   5 1.94   5 1.94   4 1.94   3 1.94   2 3.23   2 3.27
                             2 3.32   2 3.37   2 3.37   2 3.41   2 3.45   2 3.50
   2  0.510  0.520  0.530-   3 2.61   4 2.64   5 2.67   4 2.69   5 2.72   3 2.72   3 2.78   5 2.78
                             4 2.80   5 2.83   4 2.86   3 2.88   1 3.23   1 3.27   1 3.32   1 3.37
   3  0.500  0.000  0.000-   1 1.94   1 1.94   2 2.61   2 2.72   2 2.78   2 2.88
   4  0.000  0.500  0.000-   1 1.94   1 1.94   2 2.64   2 2.69   2 2.80   2 2.86
   5  0.000  0.000  0.500-   1 1.94   1 1.94   2 2.67   2 2.72   2 2.78   2 2.83

  LATTYP: Found a simple cubic cell.
 ALAT       =     3.8822000000

  Lattice vectors:

 A1 = (   3.8822000000,   0.0000000000,   0.0000000000)
 A2 = (   0.0000000000,   3.8822000000,   0.0000000000)
 A3 = (   0.0000000000,   0.0000000000,   3.8822000000)

Analysis of symmetry for initial positions (statically):
 Subroutine PRICEL returns:
 Original cell was already a primitive cell.

 Routine SETGRP: Setting up the symmetry group for a
 simple cubic supercell.

 Subroutine GETGRP returns: Found  1 space group operations
 (whereof  1 operations were pure point group operations)
 out of a pool of 48 trial point group operations.

The static configuration has the point symmetry C_1 .

Analysis of symmetry for dynamics (positions and initial velocities):
 Subroutine PRICEL returns:
 Original cell was already a primitive cell.

 Routine SETGRP: Setting up the symmetry group for a
 simple cubic supercell.

 Subroutine GETGRP returns: Found  1 space group operations
 (whereof  1 operations were pure point group operations)
 out of a pool of 48 trial point group operations.

The dynamic configuration has the point symmetry C_1 .

 KPOINTS: k-points

Automatic generation of k-mesh.
Space group operators:
 irot       det(A)        alpha          n_x          n_y          n_z        tau_x        tau_y        tau_z
    1     1.000000     0.000000     1.000000     0.000000     0.000000     0.000000     0.000000     0.000000

 Subroutine IBZKPT returns following result:

 Found     63 irreducible k-points:

 Following reciprocal coordinates:
            Coordinates               Weight
  0.000000  0.000000  0.000000      1.000000
  0.200000  0.000000  0.000000      2.000000
  0.400000  0.000000  0.000000      2.000000
  0.000000  0.200000  0.000000      2.000000
  0.200000  0.200000  0.000000      2.000000
  0.400000  0.200000  0.000000      2.000000
 -0.400000  0.200000  0.000000      2.000000
 -0.200000  0.200000  0.000000      2.000000
  0.000000  0.400000  0.000000      2.000000
  0.200000  0.400000  0.000000      2.000000
  0.400000  0.400000  0.000000      2.000000
 -0.400000  0.400000  0.000000      2.000000
 -0.200000  0.400000  0.000000      2.000000
  0.000000  0.000000  0.200000      2.000000
  0.200000  0.000000  0.200000      2.000000
  0.400000  0.000000  0.200000      2.000000
 -0.400000  0.000000  0.200000      2.000000
 -0.200000  0.000000  0.200000      2.000000
  0.000000  0.200000  0.200000      2.000000
  0.200000  0.200000  0.200000      2.000000
  0.400000  0.200000  0.200000      2.000000
 -0.400000  0.200000  0.200000      2.000000
 -0.200000  0.200000  0.200000      2.000000
  0.000000  0.400000  0.200000      2.000000
  0.200000  0.400000  0.200000      2.000000
  0.400000  0.400000  0.200000      2.000000
 -0.400000  0.400000  0.200000      2.000000
 -0.200000  0.400000  0.200000      2.000000
  0.000000 -0.400000  0.200000      2.000000
  0.200000 -0.400000  0.200000      2.000000
  0.400000 -0.400000  0.200000      2.000000
 -0.400000 -0.400000  0.200000      2.000000
 -0.200000 -0.400000  0.200000      2.000000
  0.000000 -0.200000  0.200000      2.000000
  0.200000 -0.200000  0.200000      2.000000
  0.400000 -0.200000  0.200000      2.000000
 -0.400000 -0.200000  0.200000      2.000000
 -0.200000 -0.200000  0.200000      2.000000
  0.000000  0.000000  0.400000      2.000000
  0.200000  0.000000  0.400000      2.000000
  0.400000  0.000000  0.400000      2.000000
 -0.400000  0.000000  0.400000      2.000000
 -0.200000  0.000000  0.400000      2.000000
  0.000000  0.200000  0.400000      2.000000
  0.200000  0.200000  0.400000      2.000000
  0.400000  0.200000  0.400000      2.000000
 -0.400000  0.200000  0.400000      2.000000
 -0.200000  0.200000  0.400000      2.000000
  0.000000  0.400000  0.400000      2.000000
  0.200000  0.400000  0.400000      2.000000
  0.400000  0.400000  0.400000      2.000000
 -0.400000  0.400000  0.400000      2.000000
 -0.200000  0.400000  0.400000      2.000000
  0.000000 -0.400000  0.400000      2.000000
  0.200000 -0.400000  0.400000      2.000000
  0.400000 -0.400000  0.400000      2.000000
 -0.400000 -0.400000  0.400000      2.000000
 -0.200000 -0.400000  0.400000      2.000000
  0.000000 -0.200000  0.400000      2.000000
  0.200000 -0.200000  0.400000      2.000000
  0.400000 -0.200000  0.400000      2.000000
 -0.400000 -0.200000  0.400000      2.000000
 -0.200000 -0.200000  0.400000      2.000000

 Following cartesian coordinates:
            Coordinates               Weight
  0.000000  0.000000  0.000000      1.000000
  0.200000  0.000000  0.000000      2.000000
  0.400000  0.000000  0.000000      2.000000
  0.000000  0.200000  0.000000      2.000000
  0.200000  0.200000  0.000000      2.000000
  0.400000  0.200000  0.000000      2.000000
 -0.400000  0.200000  0.000000      2.000000
 -0.200000  0.200000  0.000000      2.000000
  0.000000  0.400000  0.000000      2.000000
  0.200000  0.400000  0.000000      2.000000
  0.400000  0.400000  0.000000      2.000000
 -0.400000  0.400000  0.000000      2.000000
 -0.200000  0.400000  0.000000      2.000000
  0.000000  0.000000  0.200000      2.000000
  0.200000  0.000000  0.200000      2.000000
  0.400000  0.000000  0.200000      2.000000
 -0.400000  0.000000  0.200000      2.000000
 -0.200000  0.000000  0.200000      2.000000
  0.000000  0.200000  0.200000      2.000000
  0.200000  0.200000  0.200000      2.000000
  0.400000  0.200000  0.200000      2.000000
 -0.400000  0.200000  0.200000      2.000000
 -0.200000  0.200000  0.200000      2.000000
  0.000000  0.400000  0.200000      2.000000
  0.200000  0.400000  0.200000      2.000000
  0.400000  0.400000  0.200000      2.000000
 -0.400000  0.400000  0.200000      2.000000
 -0.200000  0.400000  0.200000      2.000000
  0.000000 -0.400000  0.200000      2.000000
  0.200000 -0.400000  0.200000      2.000000
  0.400000 -0.400000  0.200000      2.000000
 -0.400000 -0.400000  0.200000      2.000000
 -0.200000 -0.400000  0.200000      2.000000
  0.000000 -0.200000  0.200000      2.000000
  0.200000 -0.200000  0.200000      2.000000
  0.400000 -0.200000  0.200000      2.000000
 -0.400000 -0.200000  0.200000      2.000000
 -0.200000 -0.200000  0.200000      2.000000
  0.000000  0.000000  0.400000      2.000000
  0.200000  0.000000  0.400000      2.000000
  0.400000  0.000000  0.400000      2.000000
 -0.400000  0.000000  0.400000      2.000000
 -0.200000  0.000000  0.400000      2.000000
  0.000000  0.200000  0.400000      2.000000
  0.200000  0.200000  0.400000      2.000000
  0.400000  0.200000  0.400000      2.000000
 -0.400000  0.200000  0.400000      2.000000
 -0.200000  0.200000  0.400000      2.000000
  0.000000  0.400000  0.400000      2.000000
  0.200000  0.400000  0.400000      2.000000
  0.400000  0.400000  0.400000      2.000000
 -0.400000  0.400000  0.400000      2.000000
 -0.200000  0.400000  0.400000      2.000000
  0.000000 -0.400000  0.400000      2.000000
  0.200000 -0.400000  0.400000      2.000000
  0.400000 -0.400000  0.400000      2.000000
 -0.400000 -0.400000  0.400000      2.000000
 -0.200000 -0.400000  0.400000      2.000000
  0.000000 -0.200000  0.400000      2.000000
  0.200000 -0.200000  0.400000      2.000000
  0.400000 -0.200000  0.400000      2.000000
 -0.400000 -0.200000  0.400000      2.000000
 -0.200000 -0.200000  0.400000      2.000000

 I would recommend the setting:
   dimension x,y,z NGX =    19 NGY =   19 NGZ =   19
 SYSTEM =  unknown system
 POSCAR =  CaTiO3

 Startparameter for this run:
   NWRITE =      2    write-flag & timer
   PREC   = normal    normal or accurate (medium, high low for compatibility)
   ISTART =      1    job   : 0-new  1-cont  2-samecut
   ICHARG =      0    charge: 1-file 2-atom 10-const
   ISPIN  =      1    spin polarized calculation?
   LNONCOLLINEAR =      F non collinear calculations
   LSORBIT =      F    spin-orbit coupling
   INIWAV =      1    electr: 0-lowe 1-rand  2-diag
   LASPH  =      F    aspherical Exc in radial PAW
   METAGGA=      F    non-selfconsistent MetaGGA calc.

 Electronic Relaxation 1
   ENCUT  =  400.0 eV  29.40 Ry    5.42 a.u.   6.33  6.33  6.33*2*pi/ulx,y,z
   ENINI  =  400.0     initial cutoff
   ENAUG  =  605.4 eV  augmentation charge cutoff
   NELM   =     60;   NELMIN=  2; NELMDL=  0     # of ELM steps
   EDIFF  = 0.1E-03   stopping-criterion for ELM
   LREAL  =      F    real-space projection
   NLSPLINE    = F    spline interpolate recip. space projectors
   LCOMPAT=      F    compatible to vasp.4.4
   GGA_COMPAT  = T    GGA compatible to vasp.4.4-vasp.4.6
   LMAXPAW     = -100 max onsite density
   LMAXMIX     =    2 max onsite mixed and CHGCAR
   VOSKOWN=      0    Vosko Wilk Nusair interpolation
   ROPT   =    0.00000   0.00000   0.00000
 Ionic relaxation
   EDIFFG = 0.1E-02   stopping-criterion for IOM
   NSW    =   1024    number of steps for IOM
   NBLOCK =      1;   KBLOCK =   1024    inner block; outer block
   IBRION =      2    ionic relax: 0-MD 1-quasi-New 2-CG
   NFREE  =      1    steps in history (QN), initial steepest desc. (CG)
   ISIF   =      2    stress and relaxation
[...]
  Direction    XX          YY          ZZ          XY          YZ          ZX
  Alpha Z   166.69950   166.69950   166.69950
  Ewald    -755.75269  -757.95381  -761.63152     0.50864     1.55241     0.77123
  Hartree   230.18254   228.82282   226.51400     0.20792     0.63505     0.31541
  E(xc)    -170.18033  -170.18149  -170.18354     0.00040     0.00102     0.00057
  Local     -38.42146   -34.88600   -28.93200    -0.70503    -2.15288    -1.06927
  n-local   -87.99887   -88.00712   -88.02338     0.00974     0.03201     0.01553
  augment   133.01863   133.01856   133.02038     0.00017     0.00070     0.00024
  Kinetic   521.06599   521.09227   521.13342     0.02140     0.06193     0.03128
  Fock        0.00000     0.00000     0.00000     0.00000     0.00000     0.00000
  Total      -1.38668    -1.39527    -1.40315     0.04323     0.13026     0.06499
  in kB     -37.97102   -38.20639   -38.42214     1.18389     3.56676     1.77953

 VOLUME and BASIS-vectors are now :
  energy-cutoff  :      400.00
  volume of cell :       58.51
      direct lattice vectors                 reciprocal lattice vectors
     3.882200000  0.000000000  0.000000000     0.257585905  0.000000000  0.000000000
     0.000000000  3.882200000  0.000000000     0.000000000  0.257585905  0.000000000
     0.000000000  0.000000000  3.882200000     0.000000000  0.000000000  0.257585905

[...]

 FORCES acting on ions
    electron-ion (+dipol)            ewald-force                    non-local-force                 convergence-correction
   -.309E+01 -.615E+01 -.916E+01   0.324E+01 0.645E+01 0.960E+01   -.477E-01 -.941E-01 -.139E+00   -.523E-02 -.107E-01 -.173E-01
   0.910E+01 0.181E+02 0.271E+02   -.904E+01 -.180E+02 -.269E+02   -.117E+00 -.234E+00 -.350E+00   0.124E-01 0.271E-01 0.423E-01
   0.195E+01 -.721E+01 -.107E+02   -.208E+01 0.793E+01 0.118E+02   0.168E+00 -.808E+00 -.120E+01   0.255E-02 -.649E-02 -.104E-01
   -.360E+01 0.388E+01 -.106E+02   0.396E+01 -.414E+01 0.117E+02   -.405E+00 0.335E+00 -.120E+01   -.255E-02 0.285E-02 -.853E-02
   -.356E+01 -.707E+01 0.577E+01   0.392E+01 0.778E+01 -.616E+01   -.403E+00 -.802E+00 0.496E+00   -.279E-02 -.608E-02 0.495E-02
   0.800E+00 0.160E+01 0.238E+01   -.133E-14 0.178E-14 -.178E-14   -.805E+00 -.160E+01 -.239E+01   0.443E-02 0.672E-02 0.110E-01

 POSITION                                       TOTAL-FORCE (eV/Angst)
      0.00000      0.00000      0.00000         0.095727      0.189720      0.281724
      1.97992      2.01874      2.05757        -0.040098     -0.078732     -0.111251
      1.94110      0.00000      0.00000         0.039500     -0.092085     -0.141203
      0.00000      1.94110      0.00000        -0.046732      0.079345     -0.145405
      0.00000      0.00000      1.94110        -0.048397     -0.098246      0.116135
    total drift:                               -0.000542      0.000199     -0.001351

  FREE ENERGIE OF THE ION-ELECTRON SYSTEM (eV)
  free  energy   TOTEN  =       -40.05683038 eV

  energy  without entropy=      -40.06373880  energy(sigma->0) =      -40.05913319

 stress matrix after NEB project (eV)
     -1.38668      0.04323      0.06499
      0.04323     -1.39527      0.13026
      0.06499      0.13026     -1.40315
  FORCES: max atom, RMS     0.352881    0.214378
  FORCE total and by dimension    0.479365    0.281724
  Stress total and by dimension    2.425822    1.403152

[...]

 d Force = 0.9288521E-02[ 0.749E-02, 0.111E-01]  d Energy = 0.9341507E-02-0.530E-04
 d Force = 0.1707125E+00[ 0.213E+00, 0.128E+00]  d Ewald  = 0.1707111E+00 0.142E-05

 stress matrix after NEB project (eV)
     -1.41593      0.03395      0.05175
      0.03395     -1.40588      0.10435
      0.05175      0.10435     -1.39055
  FORCES: max atom, RMS     0.322184    0.163127
  FORCE total and by dimension    0.364763    0.258228
  Stress total and by dimension    2.438114    1.415929
 Steepest descent step on ions:
 trial-energy change:   -0.009342  1 .order   -0.009289   -0.011086   -0.007491
  (g-gl).g = 0.111E-01      g.g   = 0.111E-01  gl.gl    = 0.000E+00
 g(Force)  = 0.111E-01   g(Stress)= 0.000E+00 ortho     = 0.000E+00
 gamma     =   0.00000
 trial     =   1.00000
 opt step  =   3.08418  (harmonic =   3.08418) maximal distance =0.04191735
 next E    =   -40.073926   (d E  =  -0.01710)

[...]

 d Force = 0.7437927E-02[-0.737E-03, 0.156E-01]  d Energy = 0.7943238E-02-0.505E-03
 d Force = 0.6296093E+00[ 0.814E+00, 0.445E+00]  d Ewald  = 0.6298767E+00-0.267E-03

[...]

 stress matrix after NEB project (eV)
     -1.52732      0.02928      0.04422
      0.02928     -1.44150      0.09021
      0.04422      0.09021     -1.29596
  FORCES: max atom, RMS     0.240824    0.164265
  FORCE total and by dimension    0.367307    0.240756
  Stress total and by dimension    2.472250    1.527316
 Conjugate gradient step on ions:
 trial-energy change:   -0.006275  1 .order   -0.006014   -0.007304   -0.004723
  (g-gl).g = 0.123E-01      g.g   = 0.120E-01  gl.gl    = 0.111E-01
 g(Force)  = 0.120E-01   g(Stress)= 0.000E+00 ortho     =-0.354E-03
 gamma     =   1.11254
 trial     =   0.63044
 opt step  =   1.78393  (harmonic =   1.78393) maximal distance =0.04333085
 next E    =   -40.084449   (d E  =  -0.01033)

[...]

 d Force = 0.1563009E-02[-0.552E-02, 0.864E-02]  d Energy = 0.2434773E-02-0.872E-03
 d Force =-0.2776330E+00[-0.654E+00, 0.991E-01]  d Ewald  =-0.2783133E+00 0.680E-03

[...]

 d Force = 0.2152931E-02[ 0.188E-02, 0.242E-02]  d Energy = 0.2154789E-02-0.186E-05
 d Force =-0.3856145E+00[-0.397E+00,-0.374E+00]  d Ewald  =-0.3856143E+00-0.236E-06

 stress matrix after NEB project (eV)
     -1.51224      0.03430      0.05252
      0.03430     -1.33391      0.10646
      0.05252      0.10646     -1.05816
  FORCES: max atom, RMS     0.184283    0.095571
  FORCE total and by dimension    0.213704    0.148869
  Stress total and by dimension    2.283950    1.512242
 Conjugate gradient step on ions:
 trial-energy change:   -0.002155  1 .order   -0.002153   -0.002423   -0.001883
  (g-gl).g =-0.571E-03      g.g   = 0.320E-02  gl.gl    = 0.120E-01
 g(Force)  = 0.320E-02   g(Stress)= 0.000E+00 ortho     = 0.120E-02
 gamma     =  -0.04770
 trial     =   0.77126
 opt step  =   3.08505  (harmonic =   3.46383) maximal distance =0.02486278
 next E    =   -40.089046   (d E  =  -0.00544)

[...]

 stress matrix after NEB project (eV)
     -1.41388      0.04408      0.07088
      0.04408     -1.18531      0.14648
      0.07088      0.14648     -0.92356
  FORCES: max atom, RMS     0.162889    0.134067
  FORCE total and by dimension    0.299783    0.116101
  Stress total and by dimension    2.076975    1.413877
 Conjugate gradient step on ions:
 trial-energy change:   -0.001666  1 .order   -0.001677   -0.001714   -0.001639
  (g-gl).g = 0.446E-02      g.g   = 0.477E-02  gl.gl    = 0.320E-02
 g(Force)  = 0.477E-02   g(Stress)= 0.000E+00 ortho     = 0.293E-03
 gamma     =   1.39547
 trial     =   0.33126
 opt step  =   1.32506  (harmonic =   7.61725) maximal distance =0.02147183
 next E    =   -40.108633   (d E  =  -0.01971)

[...]

 d Force =-0.1071684E-01[-0.279E-01, 0.647E-02]  d Energy =-0.9101810E-02-0.162E-02
 d Force =-0.6777243E+01[-0.823E+01,-0.532E+01]  d Ewald  =-0.6772114E+01-0.513E-02

[...]

 d Force = 0.3312017E-02[ 0.266E-02, 0.396E-02]  d Energy = 0.3314702E-02-0.269E-05
 d Force =-0.1174729E+01[-0.122E+01,-0.113E+01]  d Ewald  =-0.1174739E+01 0.102E-04

 stress matrix after NEB project (eV)
     -1.19591      0.12321      0.20397
      0.12321     -0.87232      0.42656
      0.20397      0.42656     -0.59161
  FORCES: max atom, RMS     0.204591    0.105384
  FORCE total and by dimension    0.235645    0.184185
  Stress total and by dimension    1.737425    1.195914
 Conjugate gradient step on ions:
 trial-energy change:   -0.003315  1 .order   -0.003312   -0.003963   -0.002661
  (g-gl).g = 0.453E-02      g.g   = 0.470E-02  gl.gl    = 0.477E-02
 g(Force)  = 0.470E-02   g(Stress)= 0.000E+00 ortho     = 0.281E-03
 gamma     =   0.95057
 trial     =   0.79709
 opt step  =   2.42621  (harmonic =   2.42621) maximal distance =0.03455042
 next E    =   -40.107352   (d E  =  -0.00603)

[...]

 d Force = 0.1185825E-02[-0.307E-02, 0.544E-02]  d Energy = 0.1479432E-02-0.294E-03
 d Force =-0.2695679E+01[-0.289E+01,-0.250E+01]  d Ewald  =-0.2695756E+01 0.769E-04

[...]

 stress matrix after NEB project (eV)
     -1.14672      0.14785      0.25548
      0.14785     -0.70346      0.52739
      0.25548      0.52739     -0.22520
  FORCES: max atom, RMS     0.063131    0.040972
  FORCE total and by dimension    0.091615    0.049243
  Stress total and by dimension    1.609683    1.146720
 Steepest descent step on ions:
 trial-energy change:   -0.000838  1 .order   -0.000849   -0.001111   -0.000586
  (g-gl).g = 0.891E-03      g.g   = 0.989E-03  gl.gl    = 0.470E-02
 g(Force)  = 0.989E-03   g(Stress)= 0.000E+00 ortho     =-0.188E-02
 gamma     =   0.00000
 trial     =   1.12291
 opt step  =   2.37732  (harmonic =   2.37732) maximal distance =0.00847226
 next E    =   -40.107291   (d E  =  -0.00118)

[...]

 d Force = 0.3192140E-03[-0.165E-04, 0.655E-03]  d Energy = 0.2820629E-03 0.372E-04
 d Force = 0.5520643E+00[ 0.545E+00, 0.559E+00]  d Ewald  = 0.5520593E+00 0.501E-05

[...]

 d Force = 0.5324671E-03[ 0.247E-03, 0.818E-03]  d Energy = 0.5014978E-03 0.310E-04
 d Force = 0.4761783E+00[ 0.460E+00, 0.492E+00]  d Ewald  = 0.4761688E+00 0.954E-05

 stress matrix after NEB project (eV)
     -1.17464      0.13557      0.23920
      0.13557     -0.79007      0.47558
      0.23920      0.47558     -0.28204
  FORCES: max atom, RMS     0.031784    0.022804
  FORCE total and by dimension    0.050991    0.021914
  Stress total and by dimension    1.639226    1.174638
 Conjugate gradient step on ions:
 trial-energy change:   -0.000501  1 .order   -0.000532   -0.000818   -0.000247
  (g-gl).g = 0.646E-03      g.g   = 0.633E-03  gl.gl    = 0.989E-03
 g(Force)  = 0.633E-03   g(Stress)= 0.000E+00 ortho     =-0.132E-04
 gamma     =   0.65337
 trial     =   1.30891
 opt step  =   1.87609  (harmonic =   1.87609) maximal distance =0.00683118
 next E    =   -40.107821   (d E  =  -0.00059)

 FEWALD executed in parallel

[...]

 eigenvalue-minimisations  :  3322
 total energy-change (2. order) :-0.2254523E-03  (-0.2598331E-03)
 number of electron      36.0000021 magnetization
 augmentation part       11.1264872 magnetization

 Broyden mixing:
  rms(total) = 0.42418E-02    rms(broyden)= 0.42401E-02
  rms(prec ) = 0.64747E-02
  weight for this iteration     100.00

 eigenvalues of (default mixing * dielectric matrix)
  average eigenvalue GAMMA=   0.9016
  0.9016

[...]

----------------------------------------- Iteration   19(   3)  ---------------------------------------

 eigenvalue-minimisations  :  3146
 total energy-change (2. order) : 0.8173948E-05  (-0.7158674E-05)
 number of electron      36.0000021 magnetization
 augmentation part       11.1264872 magnetization

 Free energy of the ion-electron system (eV)
  alpha Z        PSCENC =       166.69949767
  Ewald energy   TEWEN  =     -2267.91560340
  -Hartree energ DENC   =      -693.31221730
  -exchange      EXHF   =         0.00000000
  -V(xc)+E(xc)   XCENC  =       137.80621730
  PAW double counting   =      3564.63739412    -3571.18124229
  entropy T*S    EENTRO =         0.00675423
  eigenvalues    EBANDS =      -328.90127806
  atomic energy  EATOM  =      2952.05274943
  free energy    TOTEN  =       -40.10772830 eV

  energy without entropy =      -40.11448253  energy(sigma->0) =      -40.10997971

 average (electrostatic) potential at core
  the test charge radii are     1.0397  1.2658  0.7215
  (the norm of the test charge is              1.0000)
       1 -53.0501       2 -45.3960       3 -70.1304       4 -70.1543       5 -70.1891

 E-fermi :   3.5743     XC(G=0): -10.9814     alpha+bet :-13.2781

[...]

 k-point    63 :      -0.2000   -0.2000    0.4000
  band No.  band energies     occupation
      1     -29.0527      2.00000
      2     -28.9969      2.00000
      3     -28.9901      2.00000
      4     -16.6014      2.00000
      5     -16.4524      2.00000
      6     -16.4265      2.00000
      7     -13.0237      2.00000
      8     -12.6555      2.00000
      9     -12.4629      2.00000
     10      -0.7174      2.00000
     11      -0.2690      2.00000
     12      -0.0145      2.00000
     13       0.4638      2.00000
     14       0.8582      2.00000
     15       1.4233      2.00000
     16       2.5248      2.00000
     17       2.5518      2.00000
     18       2.8017      2.00000
     19       6.8704     -0.00000
     20       7.4482     -0.00000
     21       7.5801     -0.00000
     22       9.7038      0.00000

 soft charge-density along one line, spin component           1
         0         1         2         3         4         5         6         7         8         9
 total charge-density along one line

------------------------ aborting loop because EDIFF is reached ----------------------------------------

  FORCE on cell =-STRESS in cart. coord.  units (eV):
  Direction    XX          YY          ZZ          XY          YZ          ZX
  Alpha Z   166.69950   166.69950   166.69950
  Ewald    -751.15916  -755.26066  -761.49761    -1.30837    -6.21132    -3.17533
  Hartree   235.36685   231.86112   226.07172    -0.58729    -3.13087    -1.53898
  E(xc)    -170.37932  -170.38306  -170.38590    -0.00307    -0.01460    -0.00716
  Local     -47.70363   -40.11185   -28.07124     1.88358     9.39465     4.72761
  n-local   -88.11801   -88.19005   -88.26425    -0.01156     0.02633    -0.00101
  augment   132.77760   132.80198   132.82680    -0.00830    -0.04873    -0.02371
  Kinetic   521.34950   521.78221   522.36791     0.17058     0.44078     0.25228
  Fock        0.00000     0.00000     0.00000     0.00000     0.00000     0.00000
  Total      -1.16667    -0.80082    -0.25308     0.13557     0.45624     0.23372
  in kB     -31.94675   -21.92854    -6.92995     3.71227    12.49301     6.39980

 VOLUME and BASIS-vectors are now :
  energy-cutoff  :      400.00
  volume of cell :       58.51
      direct lattice vectors                 reciprocal lattice vectors
     3.882200000  0.000000000  0.000000000     0.257585905  0.000000000  0.000000000
     0.000000000  3.882200000  0.000000000     0.000000000  0.257585905  0.000000000
     0.000000000  0.000000000  3.882200000     0.000000000  0.000000000  0.257585905

  length of vectors
     3.882200000  3.882200000  3.882200000     0.257585905  0.257585905  0.257585905

 FORCES acting on ions
    electron-ion (+dipol)            ewald-force                    non-local-force                 convergence-correction
   -.227E+00 -.375E+01 -.845E+01   0.156E+00 0.361E+01 0.817E+01   0.713E-01 0.129E+00 0.227E+00   -.445E-02 -.678E-02 0.122E-01
   0.198E+02 0.372E+02 0.557E+02   -.195E+02 -.366E+02 -.548E+02   -.330E+00 -.590E+00 -.867E+00   -.148E-02 -.160E-02 -.896E-03
   -.145E+02 -.573E+01 -.821E+01   0.168E+02 0.590E+01 0.830E+01   -.228E+01 -.108E+00 -.418E-01   -.101E-01 -.535E-01 -.397E-01
   -.195E+01 -.215E+02 -.642E+01   0.194E+01 0.252E+02 0.626E+01   0.377E-01 -.368E+01 0.183E+00   -.197E-01 -.312E-02 -.116E-01
   -.758E+00 -.226E+01 -.271E+02   0.582E+00 0.196E+01 0.321E+02   0.169E+00 0.292E+00 -.505E+01   0.300E-02 0.784E-02 0.393E-01
   0.237E+01 0.402E+01 0.555E+01   -.144E-14 0.488E-14 0.711E-14   -.233E+01 -.396E+01 -.555E+01   -.327E-01 -.571E-01 -.619E-03

 POSITION                                       TOTAL-FORCE (eV/Angst)
      0.03764      0.06162      0.08283        -0.005453     -0.015557     -0.043903
      2.01231      2.07743      2.14881        -0.006371     -0.006938      0.015049
      1.92969     -0.03888     -0.06956         0.015428      0.008100      0.006329
     -0.02497      1.92414     -0.08241         0.000981      0.013786      0.011691
     -0.03365     -0.06447      1.91900        -0.004584      0.000608      0.010834
    total drift:                                0.006049      0.000030     -0.001982

  FREE ENERGIE OF THE ION-ELECTRON SYSTEM (eV)
  free  energy   TOTEN  =       -40.10772830 eV

  energy  without entropy=      -40.11448253  energy(sigma->0) =      -40.10997971

 d Force = 0.3319483E-04[-0.407E-04, 0.107E-03]  d Energy =-0.8644075E-05 0.418E-04
 d Force = 0.1963510E+00[ 0.193E+00, 0.199E+00]  d Ewald  = 0.1963502E+00 0.752E-06

 stress matrix after NEB project (eV)
     -1.16667      0.13557      0.23372
      0.13557     -0.80082      0.45624
      0.23372      0.45624     -0.25308
  FORCES: max atom, RMS     0.046896    0.025786
  FORCE total and by dimension    0.057659    0.043903
  Stress total and by dimension    1.621356    1.166675

 reached required accuracy - stopping structural energy minimisation
 writing wavefunctions