 vasp.5.3.5 31Mar14 (build Dec 17 2015 22:09:37) complex

 executed on             LinuxIFC date 2017.03.19  16:23:35

 INCAR:
 POTCAR:    PAW_PBE Ti_pv 07Sep2000
 POTCAR:    PAW_PBE Ca_pv 06Sep2000
 POTCAR:    PAW_PBE O 08Apr2002

 POTCAR:    PAW_PBE Ti_pv 07Sep2000
   VRHFIN =Ti: d3 s1

   TITEL  = PAW_PBE Ti_pv 07Sep2000
   POMASS =   47.880; ZVAL   =   10.000    mass and valenz
   ENMAX  =  222.335; ENMIN  =  166.751 eV

 POTCAR:    PAW_PBE Ca_pv 06Sep2000
   VRHFIN =Ca: p6s2d0.01

   TITEL  = PAW_PBE Ca_pv 06Sep2000
   POMASS =   40.078; ZVAL   =    8.000    mass and valenz
   ENMAX  =  119.559; ENMIN  =   89.670 eV

 POTCAR:    PAW_PBE O 08Apr2002
   VRHFIN =O: s2p4

   TITEL  = PAW_PBE O 08Apr2002
   POMASS =   16.000; ZVAL   =    6.000    mass and valenz
   ENMAX  =  400.000; ENMIN  =  300.000 eV

  PAW_PBE Ti_pv 07Sep2000               :
  PAW_PBE Ca_pv 06Sep2000               :
  PAW_PBE O 08Apr2002                   :

 POSCAR: CaTiO3
  positions in direct lattice
  velocities in cartesian coordinates
 exchange correlation table for  LEXCH =        8
   RHO(1)=    0.500       N(1)  =     2000
   RHO(2)=  100.500       N(2)  =     4000

 VTST: version 3.1, (03/28/14)

 CHAIN: initializing optimizer

 OPT: Using VASP Conjugate-Gradient optimizer
 CHAIN: Read ICHAIN            0

 POSCAR: CaTiO3
  positions in direct lattice
  velocities in cartesian coordinates

 ion  position               nearest neighbor table
   1  0.000  0.000  0.000-   3 1.94   4 1.94   5 1.94   5 1.94   4 1.94   3 1.94   2 3.23   2 3.27
                             2 3.32   2 3.37   2 3.37   2 3.41   2 3.45   2 3.50
   2  0.510  0.520  0.530-   3 2.61   4 2.64   5 2.67   4 2.69   5 2.72   3 2.72   3 2.78   5 2.78
                             4 2.80   5 2.83   4 2.86   3 2.88   1 3.23   1 3.27   1 3.32   1 3.37
   3  0.500  0.000  0.000-   1 1.94   1 1.94   2 2.61   2 2.72   2 2.78   2 2.88
   4  0.000  0.500  0.000-   1 1.94   1 1.94   2 2.64   2 2.69   2 2.80   2 2.86
   5  0.000  0.000  0.500-   1 1.94   1 1.94   2 2.67   2 2.72   2 2.78   2 2.83

  LATTYP: Found a simple cubic cell.
 ALAT       =     3.8822000000

  Lattice vectors:

 A1 = (   3.8822000000,   0.0000000000,   0.0000000000)
 A2 = (   0.0000000000,   3.8822000000,   0.0000000000)
 A3 = (   0.0000000000,   0.0000000000,   3.8822000000)

Analysis of symmetry for initial positions (statically):
 Subroutine PRICEL returns:
 Original cell was already a primitive cell.

 Routine SETGRP: Setting up the symmetry group for a
 simple cubic supercell.

 Subroutine GETGRP returns: Found  1 space group operations
 (whereof  1 operations were pure point group operations)
 out of a pool of 48 trial point group operations.

The static configuration has the point symmetry C_1 .

Analysis of symmetry for dynamics (positions and initial velocities):
 Subroutine PRICEL returns:
 Original cell was already a primitive cell.

 Routine SETGRP: Setting up the symmetry group for a
 simple cubic supercell.

 Subroutine GETGRP returns: Found  1 space group operations
 (whereof  1 operations were pure point group operations)
 out of a pool of 48 trial point group operations.

The dynamic configuration has the point symmetry C_1 .

 KPOINTS: k-points

Automatic generation of k-mesh.
Space group operators:
 irot       det(A)        alpha          n_x          n_y          n_z        tau_x        tau_y        tau_z
    1     1.000000     0.000000     1.000000     0.000000     0.000000     0.000000     0.000000     0.000000

 Subroutine IBZKPT returns following result:

 Found     63 irreducible k-points:

 Following reciprocal coordinates:
            Coordinates               Weight
  0.000000  0.000000  0.000000      1.000000
  0.200000  0.000000  0.000000      2.000000
  0.400000  0.000000  0.000000      2.000000
  0.000000  0.200000  0.000000      2.000000
  0.200000  0.200000  0.000000      2.000000
  0.400000  0.200000  0.000000      2.000000
 -0.400000  0.200000  0.000000      2.000000
 -0.200000  0.200000  0.000000      2.000000
  0.000000  0.400000  0.000000      2.000000
  0.200000  0.400000  0.000000      2.000000
  0.400000  0.400000  0.000000      2.000000
 -0.400000  0.400000  0.000000      2.000000
 -0.200000  0.400000  0.000000      2.000000
  0.000000  0.000000  0.200000      2.000000
  0.200000  0.000000  0.200000      2.000000
  0.400000  0.000000  0.200000      2.000000
 -0.400000  0.000000  0.200000      2.000000
 -0.200000  0.000000  0.200000      2.000000
  0.000000  0.200000  0.200000      2.000000
  0.200000  0.200000  0.200000      2.000000
  0.400000  0.200000  0.200000      2.000000
 -0.400000  0.200000  0.200000      2.000000
 -0.200000  0.200000  0.200000      2.000000
  0.000000  0.400000  0.200000      2.000000
  0.200000  0.400000  0.200000      2.000000
  0.400000  0.400000  0.200000      2.000000
 -0.400000  0.400000  0.200000      2.000000
 -0.200000  0.400000  0.200000      2.000000
  0.000000 -0.400000  0.200000      2.000000
  0.200000 -0.400000  0.200000      2.000000
  0.400000 -0.400000  0.200000      2.000000
 -0.400000 -0.400000  0.200000      2.000000
 -0.200000 -0.400000  0.200000      2.000000
  0.000000 -0.200000  0.200000      2.000000
  0.200000 -0.200000  0.200000      2.000000
  0.400000 -0.200000  0.200000      2.000000
 -0.400000 -0.200000  0.200000      2.000000
 -0.200000 -0.200000  0.200000      2.000000
  0.000000  0.000000  0.400000      2.000000
  0.200000  0.000000  0.400000      2.000000
  0.400000  0.000000  0.400000      2.000000
 -0.400000  0.000000  0.400000      2.000000
 -0.200000  0.000000  0.400000      2.000000
  0.000000  0.200000  0.400000      2.000000
  0.200000  0.200000  0.400000      2.000000
  0.400000  0.200000  0.400000      2.000000
 -0.400000  0.200000  0.400000      2.000000
 -0.200000  0.200000  0.400000      2.000000
  0.000000  0.400000  0.400000      2.000000
  0.200000  0.400000  0.400000      2.000000
  0.400000  0.400000  0.400000      2.000000
 -0.400000  0.400000  0.400000      2.000000
 -0.200000  0.400000  0.400000      2.000000
  0.000000 -0.400000  0.400000      2.000000
  0.200000 -0.400000  0.400000      2.000000
  0.400000 -0.400000  0.400000      2.000000
 -0.400000 -0.400000  0.400000      2.000000
 -0.200000 -0.400000  0.400000      2.000000
  0.000000 -0.200000  0.400000      2.000000
  0.200000 -0.200000  0.400000      2.000000
  0.400000 -0.200000  0.400000      2.000000
 -0.400000 -0.200000  0.400000      2.000000
 -0.200000 -0.200000  0.400000      2.000000

 Following cartesian coordinates:
            Coordinates               Weight
  0.000000  0.000000  0.000000      1.000000
  0.200000  0.000000  0.000000      2.000000
  0.400000  0.000000  0.000000      2.000000
  0.000000  0.200000  0.000000      2.000000
  0.200000  0.200000  0.000000      2.000000
  0.400000  0.200000  0.000000      2.000000
 -0.400000  0.200000  0.000000      2.000000
 -0.200000  0.200000  0.000000      2.000000
  0.000000  0.400000  0.000000      2.000000
  0.200000  0.400000  0.000000      2.000000
  0.400000  0.400000  0.000000      2.000000
 -0.400000  0.400000  0.000000      2.000000
 -0.200000  0.400000  0.000000      2.000000
  0.000000  0.000000  0.200000      2.000000
  0.200000  0.000000  0.200000      2.000000
  0.400000  0.000000  0.200000      2.000000
 -0.400000  0.000000  0.200000      2.000000
 -0.200000  0.000000  0.200000      2.000000
  0.000000  0.200000  0.200000      2.000000
  0.200000  0.200000  0.200000      2.000000
  0.400000  0.200000  0.200000      2.000000
 -0.400000  0.200000  0.200000      2.000000
 -0.200000  0.200000  0.200000      2.000000
  0.000000  0.400000  0.200000      2.000000
  0.200000  0.400000  0.200000      2.000000
  0.400000  0.400000  0.200000      2.000000
 -0.400000  0.400000  0.200000      2.000000
 -0.200000  0.400000  0.200000      2.000000
  0.000000 -0.400000  0.200000      2.000000
  0.200000 -0.400000  0.200000      2.000000
  0.400000 -0.400000  0.200000      2.000000
 -0.400000 -0.400000  0.200000      2.000000
 -0.200000 -0.400000  0.200000      2.000000
  0.000000 -0.200000  0.200000      2.000000
  0.200000 -0.200000  0.200000      2.000000
  0.400000 -0.200000  0.200000      2.000000
 -0.400000 -0.200000  0.200000      2.000000
 -0.200000 -0.200000  0.200000      2.000000
  0.000000  0.000000  0.400000      2.000000
  0.200000  0.000000  0.400000      2.000000
  0.400000  0.000000  0.400000      2.000000
 -0.400000  0.000000  0.400000      2.000000
 -0.200000  0.000000  0.400000      2.000000
  0.000000  0.200000  0.400000      2.000000
  0.200000  0.200000  0.400000      2.000000
  0.400000  0.200000  0.400000      2.000000
 -0.400000  0.200000  0.400000      2.000000
 -0.200000  0.200000  0.400000      2.000000
  0.000000  0.400000  0.400000      2.000000
  0.200000  0.400000  0.400000      2.000000
  0.400000  0.400000  0.400000      2.000000
 -0.400000  0.400000  0.400000      2.000000
 -0.200000  0.400000  0.400000      2.000000
  0.000000 -0.400000  0.400000      2.000000
  0.200000 -0.400000  0.400000      2.000000
  0.400000 -0.400000  0.400000      2.000000
 -0.400000 -0.400000  0.400000      2.000000
 -0.200000 -0.400000  0.400000      2.000000
  0.000000 -0.200000  0.400000      2.000000
  0.200000 -0.200000  0.400000      2.000000
  0.400000 -0.200000  0.400000      2.000000
 -0.400000 -0.200000  0.400000      2.000000
 -0.200000 -0.200000  0.400000      2.000000

 I would recommend the setting:
   dimension x,y,z NGX =    19 NGY =   19 NGZ =   19
 SYSTEM =  unknown system
 POSCAR =  CaTiO3

 Startparameter for this run:
   NWRITE =      2    write-flag & timer
   PREC   = normal    normal or accurate (medium, high low for compatibility)
   ISTART =      0    job   : 0-new  1-cont  2-samecut
   ICHARG =      2    charge: 1-file 2-atom 10-const
   ISPIN  =      1    spin polarized calculation?
   LNONCOLLINEAR =      F non collinear calculations
   LSORBIT =      F    spin-orbit coupling
   INIWAV =      1    electr: 0-lowe 1-rand  2-diag
   LASPH  =      F    aspherical Exc in radial PAW
   METAGGA=      F    non-selfconsistent MetaGGA calc.

 Electronic Relaxation 1
   ENCUT  =  400.0 eV  29.40 Ry    5.42 a.u.   6.33  6.33  6.33*2*pi/ulx,y,z
   ENINI  =  400.0     initial cutoff
   ENAUG  =  605.4 eV  augmentation charge cutoff
   NELM   =     60;   NELMIN=  2; NELMDL=  0     # of ELM steps
   EDIFF  = 0.1E-03   stopping-criterion for ELM
   LREAL  =      F    real-space projection
   NLSPLINE    = F    spline interpolate recip. space projectors
   LCOMPAT=      F    compatible to vasp.4.4
   GGA_COMPAT  = T    GGA compatible to vasp.4.4-vasp.4.6
   LMAXPAW     = -100 max onsite density
   LMAXMIX     =    2 max onsite mixed and CHGCAR
   VOSKOWN=      0    Vosko Wilk Nusair interpolation
   ROPT   =    0.00000   0.00000   0.00000
 Ionic relaxation
   EDIFFG = 0.1E-02   stopping-criterion for IOM
   NSW    =   1024    number of steps for IOM
   NBLOCK =      1;   KBLOCK =   1024    inner block; outer block
   IBRION =      2    ionic relax: 0-MD 1-quasi-New 2-CG
   NFREE  =      1    steps in history (QN), initial steepest desc. (CG)
   ISIF   =      2    stress and relaxation
[...]
      7     -13.8722      2.00000
      8     -12.7861      2.00000
      9     -12.7743      2.00000
     10       0.6398      2.00000
     11       0.6442      2.00000
     12       0.6493      2.00000
     13       2.5405      2.00000
     14       2.5517      2.00000
     15       2.5718      2.00000
     16       3.2823      2.01559
     17       3.2830      2.01576
     18       3.2879      2.01706
     19       5.5573     -0.00000
     20       5.5767     -0.00000
     21       5.5777     -0.00000
     22       8.0485     -0.00000

[...]

 soft charge-density along one line, spin component           1
         0         1         2         3         4         5         6         7         8         9
 total charge-density along one line

------------------------ aborting loop because EDIFF is reached ----------------------------------------

  FORCE on cell =-STRESS in cart. coord.  units (eV):
  Direction    XX          YY          ZZ          XY          YZ          ZX
  Alpha Z   166.69950   166.69950   166.69950
  Ewald    -755.75269  -757.95381  -761.63152     0.50864     1.55241     0.77123
  Hartree   230.20145   228.79359   226.45885     0.20816     0.63580     0.31577
  E(xc)    -170.18326  -170.18462  -170.18685     0.00028     0.00086     0.00043
  Local     -38.46647   -34.86966   -28.88366    -0.70573    -2.15453    -1.07022
  n-local   -87.99180   -88.00011   -88.01704     0.00972     0.03192     0.01543
  augment   133.01583   133.01648   133.01863    -0.00031    -0.00057    -0.00046
  Kinetic   521.03417   521.05503   521.09685     0.02140     0.06148     0.03125
  Fock        0.00000     0.00000     0.00000     0.00000     0.00000     0.00000
  Total      -1.44326    -1.44360    -1.44524     0.04215     0.12738     0.06342
  in kB     -39.52044   -39.52966   -39.57467     1.15421     3.48795     1.73672

 VOLUME and BASIS-vectors are now :
  energy-cutoff  :      400.00
  volume of cell :       58.51
      direct lattice vectors                 reciprocal lattice vectors
     3.882200000  0.000000000  0.000000000     0.257585905  0.000000000  0.000000000
     0.000000000  3.882200000  0.000000000     0.000000000  0.257585905  0.000000000
     0.000000000  0.000000000  3.882200000     0.000000000  0.000000000  0.257585905

[...]

 FORCES acting on ions
    electron-ion (+dipol)            ewald-force                    non-local-force                 convergence-correction
   -.309E+01 -.616E+01 -.917E+01   0.324E+01 0.645E+01 0.960E+01   -.489E-01 -.973E-01 -.144E+00   -.111E-02 -.174E-02 -.255E-02
   0.911E+01 0.182E+02 0.271E+02   -.904E+01 -.180E+02 -.269E+02   -.114E+00 -.228E+00 -.340E+00   0.120E-02 0.161E-02 0.152E-02
   0.195E+01 -.721E+01 -.107E+02   -.208E+01 0.793E+01 0.118E+02   0.170E+00 -.811E+00 -.121E+01   0.148E-03 0.661E-03 0.986E-03
   -.361E+01 0.388E+01 -.106E+02   0.396E+01 -.414E+01 0.117E+02   -.406E+00 0.337E+00 -.120E+01   0.284E-03 0.195E-03 0.105E-02
   -.356E+01 -.707E+01 0.577E+01   0.392E+01 0.778E+01 -.616E+01   -.404E+00 -.804E+00 0.500E+00   0.282E-03 0.676E-03 0.294E-03
   0.803E+00 0.160E+01 0.239E+01   -.133E-14 0.178E-14 -.178E-14   -.803E+00 -.160E+01 -.239E+01   0.812E-03 0.140E-02 0.130E-02

 POSITION                                       TOTAL-FORCE (eV/Angst)
      0.00000      0.00000      0.00000         0.095487      0.189635      0.280969
      1.97992      2.01874      2.05757        -0.039945     -0.077625     -0.109740
      1.94110      0.00000      0.00000         0.039590     -0.092461     -0.142108
      0.00000      1.94110      0.00000        -0.046669      0.078595     -0.145324
      0.00000      0.00000      1.94110        -0.048463     -0.098144      0.116203
    total drift:                                0.000010     -0.000399     -0.000364

  FREE ENERGIE OF THE ION-ELECTRON SYSTEM (eV)
  free  energy   TOTEN  =       -40.05683204 eV

  energy  without entropy=      -40.06374146  energy(sigma->0) =      -40.05913518

 stress matrix after NEB project (eV)
     -1.44326      0.04215      0.06342
      0.04215     -1.44360      0.12738
      0.06342      0.12738     -1.44524
  FORCES: max atom, RMS     0.352169    0.213989
  FORCE total and by dimension    0.478494    0.280969
  Stress total and by dimension    2.509930    1.445241

[...]

 d Force = 0.9262647E-02[ 0.748E-02, 0.110E-01]  d Energy = 0.9327998E-02-0.654E-04
 d Force = 0.1669459E+00[ 0.210E+00, 0.124E+00]  d Ewald  = 0.1669446E+00 0.132E-05

 stress matrix after NEB project (eV)
     -1.41501      0.03398      0.05168
      0.03398     -1.40558      0.10428
      0.05168      0.10428     -1.39046
  FORCES: max atom, RMS     0.322221    0.163139
  FORCE total and by dimension    0.364790    0.258282
  Stress total and by dimension    2.437354    1.415009
 Steepest descent step on ions:
 trial-energy change:   -0.009328  1 .order   -0.009263   -0.011045   -0.007480
  (g-gl).g = 0.110E-01      g.g   = 0.110E-01  gl.gl    = 0.000E+00
 g(Force)  = 0.110E-01   g(Stress)= 0.000E+00 ortho     = 0.000E+00
 gamma     =   0.00000
 trial     =   1.00000
 opt step  =   3.09773  (harmonic =   3.09773) maximal distance =0.04198880
 next E    =   -40.073940   (d E  =  -0.01711)

[...]

 d Force = 0.7453989E-02[-0.783E-03, 0.157E-01]  d Energy = 0.7968679E-02-0.515E-03
 d Force = 0.6275718E+00[ 0.815E+00, 0.440E+00]  d Ewald  = 0.6278458E+00-0.274E-03

[...]

 stress matrix after NEB project (eV)
     -1.52780      0.02934      0.04432
      0.02934     -1.44116      0.09067
      0.04432      0.09067     -1.29711
  FORCES: max atom, RMS     0.245262    0.166384
  FORCE total and by dimension    0.372046    0.245181
  Stress total and by dimension    2.472997    1.527802
 Conjugate gradient step on ions:
 trial-energy change:   -0.006227  1 .order   -0.005972   -0.007228   -0.004716
  (g-gl).g = 0.125E-01      g.g   = 0.121E-01  gl.gl    = 0.110E-01
 g(Force)  = 0.121E-01   g(Stress)= 0.000E+00 ortho     =-0.373E-03
 gamma     =   1.12867
 trial     =   0.61920
 opt step  =   1.78188  (harmonic =   1.78188) maximal distance =0.04364091
 next E    =   -40.084528   (d E  =  -0.01040)

[...]

 d Force = 0.1566262E-02[-0.572E-02, 0.886E-02]  d Energy = 0.2465027E-02-0.899E-03
 d Force =-0.2760874E+00[-0.661E+00, 0.109E+00]  d Ewald  =-0.2768001E+00 0.713E-03

[...]

 d Force = 0.8415579E-03[-0.563E-03, 0.225E-02]  d Energy = 0.8182711E-03 0.233E-04
 d Force = 0.2004627E+00[ 0.141E+00, 0.260E+00]  d Ewald  = 0.2005122E+00-0.495E-04

[...]

 d Force = 0.2160876E-02[ 0.188E-02, 0.244E-02]  d Energy = 0.2163223E-02-0.235E-05
 d Force =-0.3863749E+00[-0.397E+00,-0.375E+00]  d Ewald  =-0.3863746E+00-0.240E-06

 stress matrix after NEB project (eV)
     -1.51312      0.03437      0.05259
      0.03437     -1.33304      0.10702
      0.05259      0.10702     -1.05779
  FORCES: max atom, RMS     0.184609    0.095856
  FORCE total and by dimension    0.214340    0.149065
  Stress total and by dimension    2.283911    1.513121
 Conjugate gradient step on ions:
 trial-energy change:   -0.002163  1 .order   -0.002161   -0.002441   -0.001881
  (g-gl).g =-0.618E-03      g.g   = 0.327E-02  gl.gl    = 0.121E-01
 g(Force)  = 0.327E-02   g(Stress)= 0.000E+00 ortho     = 0.123E-02
 gamma     =  -0.05112
 trial     =   0.76045
 opt step  =   3.04181  (harmonic =   3.31377) maximal distance =0.02462726
 next E    =   -40.088957   (d E  =  -0.00532)

[...]

 stress matrix after NEB project (eV)
     -1.41349      0.04394      0.07059
      0.04394     -1.18443      0.14645
      0.07059      0.14645     -0.92225
  FORCES: max atom, RMS     0.164565    0.135259
  FORCE total and by dimension    0.302448    0.117511
  Stress total and by dimension    2.075599    1.413492
 Conjugate gradient step on ions:
 trial-energy change:   -0.001658  1 .order   -0.001667   -0.001704   -0.001629
  (g-gl).g = 0.459E-02      g.g   = 0.481E-02  gl.gl    = 0.327E-02
 g(Force)  = 0.481E-02   g(Stress)= 0.000E+00 ortho     = 0.215E-03
 gamma     =   1.40216
 trial     =   0.33314
 opt step  =   1.33257  (harmonic =   7.55014) maximal distance =0.02171039
 next E    =   -40.108186   (d E  =  -0.01931)

[...]

 d Force = 0.3455546E-02[ 0.296E-02, 0.395E-02]  d Energy = 0.3414548E-02 0.410E-04
 d Force =-0.6566900E+00[-0.672E+00,-0.641E+00]  d Ewald  =-0.6566886E+00-0.144E-05

 stress matrix after NEB project (eV)
     -1.27672      0.10446      0.16971
      0.10446     -0.97412      0.35213
      0.16971      0.35213     -0.68229
  FORCES: max atom, RMS     0.158398    0.088697
  FORCE total and by dimension    0.198333    0.140072
  Stress total and by dimension    1.836269    1.276724
 Conjugate gradient step on ions:
 trial-energy change:   -0.003415  1 .order   -0.003456   -0.003953   -0.002958
  (g-gl).g = 0.207E-02      g.g   = 0.356E-02  gl.gl    = 0.481E-02
 g(Force)  = 0.356E-02   g(Stress)= 0.000E+00 ortho     = 0.157E-02
 gamma     =   0.43035
 trial     =   0.93280
 opt step  =   3.70363  (harmonic =   3.70363) maximal distance =0.03039973
 next E    =   -40.108311   (d E  =  -0.00785)

[...]

 d Force = 0.2313043E-02[-0.416E-02, 0.879E-02]  d Energy = 0.2863058E-02-0.550E-03
 d Force =-0.2137622E+01[-0.228E+01,-0.200E+01]  d Ewald  =-0.2137432E+01-0.190E-03

[...]

 d Force = 0.7614212E-03[-0.448E-03, 0.197E-02]  d Energy = 0.7385634E-03 0.229E-04
 d Force =-0.8784046E-01[-0.125E+00,-0.506E-01]  d Ewald  =-0.8786655E-01 0.261E-04

 stress matrix after NEB project (eV)
     -1.19755      0.13529      0.22794
      0.13529     -0.78482      0.45988
      0.22794      0.45988     -0.36486
  FORCES: max atom, RMS     0.073726    0.040397
  FORCE total and by dimension    0.090330    0.071415
  Stress total and by dimension    1.657312    1.197550
 Steepest descent step on ions:
 trial-energy change:   -0.000739  1 .order   -0.000761   -0.001971    0.000448
  (g-gl).g = 0.293E-02      g.g   = 0.133E-02  gl.gl    = 0.356E-02
 g(Force)  = 0.133E-02   g(Stress)= 0.000E+00 ortho     =-0.150E-02
 gamma     =   0.00000
 trial     =   1.48697
 opt step  =   1.21169  (harmonic =   1.21169) maximal distance =0.00417115
 next E    =   -40.107543   (d E  =  -0.00080)

 FEWALD executed in parallel

[...]

 eigenvalue-minimisations  :  2926
 total energy-change (2. order) :-0.1105245E-03  (-0.1321256E-03)
 number of electron      36.0000021 magnetization
 augmentation part       11.1260595 magnetization

 Broyden mixing:
  rms(total) = 0.24868E-02    rms(broyden)= 0.24857E-02
  rms(prec ) = 0.38136E-02
  weight for this iteration     100.00

 eigenvalues of (default mixing * dielectric matrix)
  average eigenvalue GAMMA=   0.7477
  0.7477

[...]

----------------------------------------- Iteration   15(   3)  ---------------------------------------

 eigenvalue-minimisations  :  1738
 total energy-change (2. order) : 0.2875160E-05  (-0.3358258E-05)
 number of electron      36.0000021 magnetization
 augmentation part       11.1260595 magnetization

 Free energy of the ion-electron system (eV)
  alpha Z        PSCENC =       166.69949767
  Ewald energy   TEWEN  =     -2268.18651255
  -Hartree energ DENC   =      -693.01230386
  -exchange      EXHF   =         0.00000000
  -V(xc)+E(xc)   XCENC  =       137.79829540
  PAW double counting   =      3560.50727924    -3567.05168396
  entropy T*S    EENTRO =         0.00675494
  eigenvalues    EBANDS =      -328.92159179
  atomic energy  EATOM  =      2952.05274943
  free energy    TOTEN  =       -40.10751547 eV

  energy without entropy =      -40.11427042  energy(sigma->0) =      -40.10976712

 average (electrostatic) potential at core
  the test charge radii are     1.0397  1.2658  0.7215
  (the norm of the test charge is              1.0000)
       1 -53.0572       2 -45.4003       3 -70.1310       4 -70.1576       5 -70.1817

 E-fermi :   3.5784     XC(G=0): -10.9824     alpha+bet :-13.2781

[...]

 k-point    63 :      -0.2000   -0.2000    0.4000
  band No.  band energies     occupation
      1     -29.0553      2.00000
      2     -29.0035      2.00000
      3     -28.9952      2.00000
      4     -16.6047      2.00000
      5     -16.4557      2.00000
      6     -16.4300      2.00000
      7     -13.0260      2.00000
      8     -12.6556      2.00000
      9     -12.4585      2.00000
     10      -0.7100      2.00000
     11      -0.2656      2.00000
     12      -0.0074      2.00000
     13       0.4512      2.00000
     14       0.8530      2.00000
     15       1.4213      2.00000
     16       2.5279      2.00000
     17       2.5477      2.00000
     18       2.8078      2.00000
     19       6.8724     -0.00000
     20       7.4458     -0.00000
     21       7.5748     -0.00000
     22       9.6972      0.00000

 soft charge-density along one line, spin component           1
         0         1         2         3         4         5         6         7         8         9
 total charge-density along one line

------------------------ aborting loop because EDIFF is reached ----------------------------------------

  FORCE on cell =-STRESS in cart. coord.  units (eV):
  Direction    XX          YY          ZZ          XY          YZ          ZX
  Alpha Z   166.69950   166.69950   166.69950
  Ewald    -752.32085  -754.64169  -761.22580    -2.03409    -4.51693    -2.83543
  Hartree   234.72358   232.01099   226.29388    -0.94232    -2.28462    -1.37569
  E(xc)    -170.37148  -170.37235  -170.37496    -0.00425    -0.01197    -0.00663
  Local     -45.88797   -40.90246   -28.61527     2.97439     6.83631     4.22493
  n-local   -88.14581   -88.17900   -88.24128    -0.01922     0.04961     0.00338
  augment   132.78402   132.81681   132.83889    -0.01238    -0.03845    -0.02143
  Kinetic   521.32430   521.79051   522.29755     0.17431     0.42666     0.23839
  Fock        0.00000     0.00000     0.00000     0.00000     0.00000     0.00000
  Total      -1.19472    -0.77768    -0.32749     0.13643     0.46061     0.22752
  in kB     -32.71459   -21.29514    -8.96753     3.73595    12.61290     6.23000

 VOLUME and BASIS-vectors are now :
  energy-cutoff  :      400.00
  volume of cell :       58.51
      direct lattice vectors                 reciprocal lattice vectors
     3.882200000  0.000000000  0.000000000     0.257585905  0.000000000  0.000000000
     0.000000000  3.882200000  0.000000000     0.000000000  0.257585905  0.000000000
     0.000000000  0.000000000  3.882200000     0.000000000  0.000000000  0.257585905

  length of vectors
     3.882200000  3.882200000  3.882200000     0.257585905  0.257585905  0.257585905

 FORCES acting on ions
    electron-ion (+dipol)            ewald-force                    non-local-force                 convergence-correction
   -.294E+00 -.390E+01 -.994E+01   0.201E+00 0.373E+01 0.969E+01   0.725E-01 0.140E+00 0.226E+00   0.123E-01 0.158E-01 0.218E-01
   0.195E+02 0.375E+02 0.552E+02   -.192E+02 -.369E+02 -.544E+02   -.328E+00 -.605E+00 -.862E+00   -.172E-02 -.111E-02 0.220E-02
   -.145E+02 -.541E+01 -.849E+01   0.168E+02 0.544E+01 0.853E+01   -.229E+01 -.138E-01 -.130E-01   -.179E-01 0.184E-01 0.373E-03
   -.167E+01 -.216E+02 -.692E+01   0.158E+01 0.254E+02 0.681E+01   0.838E-01 -.375E+01 0.133E+00   0.142E-01 -.600E-02 -.787E-02
   -.764E+00 -.262E+01 -.246E+02   0.586E+00 0.237E+01 0.293E+02   0.163E+00 0.235E+00 -.482E+01   0.778E-02 0.110E-02 0.380E-01
   0.229E+01 0.396E+01 0.527E+01   -.133E-14 0.444E-15 0.000E+00   -.230E+01 -.399E+01 -.533E+01   0.146E-01 0.282E-01 0.545E-01

 POSITION                                       TOTAL-FORCE (eV/Angst)
      0.03815      0.06273      0.08008        -0.008296     -0.016443      0.000242
      2.01122      2.07769      2.14547         0.002493     -0.002783      0.008369
      1.93022     -0.04669     -0.07142         0.006451      0.030390      0.030111
     -0.02732      1.92461     -0.07756         0.006843     -0.000112      0.010219
     -0.03125     -0.05849      1.92210        -0.007491     -0.011053     -0.048941
    total drift:                                0.002605     -0.007507     -0.008687

  FREE ENERGIE OF THE ION-ELECTRON SYSTEM (eV)
  free  energy   TOTEN  =       -40.10751547 eV

  energy  without entropy=      -40.11427042  energy(sigma->0) =      -40.10976712

 d Force = 0.4472639E-04[ 0.658E-05, 0.829E-04]  d Energy = 0.3695800E-04 0.777E-05
 d Force = 0.2188521E-01[ 0.206E-01, 0.232E-01]  d Ewald  = 0.2188385E-01 0.135E-05

 stress matrix after NEB project (eV)
     -1.19472      0.13643      0.22752
      0.13643     -0.77768      0.46061
      0.22752      0.46061     -0.32749
  FORCES: max atom, RMS     0.050730    0.031686
  FORCE total and by dimension    0.070851    0.048941
  Stress total and by dimension    1.644529    1.194716

 reached required accuracy - stopping structural energy minimisation
 writing wavefunctions