 vasp.5.3.5 31Mar14 (build Dec 17 2015 22:09:37) complex

 executed on             LinuxIFC date 2017.03.19  05:11:30

 INCAR:
 POTCAR:    PAW_PBE Ti_pv 07Sep2000
 POTCAR:    PAW_PBE Ca_pv 06Sep2000
 POTCAR:    PAW_PBE O 08Apr2002

 POTCAR:    PAW_PBE Ti_pv 07Sep2000
   VRHFIN =Ti: d3 s1

   TITEL  = PAW_PBE Ti_pv 07Sep2000
   POMASS =   47.880; ZVAL   =   10.000    mass and valenz
   ENMAX  =  222.335; ENMIN  =  166.751 eV

 POTCAR:    PAW_PBE Ca_pv 06Sep2000
   VRHFIN =Ca: p6s2d0.01

   TITEL  = PAW_PBE Ca_pv 06Sep2000
   POMASS =   40.078; ZVAL   =    8.000    mass and valenz
   ENMAX  =  119.559; ENMIN  =   89.670 eV

 POTCAR:    PAW_PBE O 08Apr2002
   VRHFIN =O: s2p4

   TITEL  = PAW_PBE O 08Apr2002
   POMASS =   16.000; ZVAL   =    6.000    mass and valenz
   ENMAX  =  400.000; ENMIN  =  300.000 eV

  PAW_PBE Ti_pv 07Sep2000               :
  PAW_PBE Ca_pv 06Sep2000               :
  PAW_PBE O 08Apr2002                   :

 POSCAR: CaTiO3
  positions in direct lattice
  velocities in cartesian coordinates
 exchange correlation table for  LEXCH =        8
   RHO(1)=    0.500       N(1)  =     2000
   RHO(2)=  100.500       N(2)  =     4000

 VTST: version 3.1, (03/28/14)

 CHAIN: initializing optimizer

 OPT: Using VASP Conjugate-Gradient optimizer
 CHAIN: Read ICHAIN            0

 POSCAR: CaTiO3
  positions in direct lattice
  velocities in cartesian coordinates

 ion  position               nearest neighbor table
   1  0.000  0.000  0.000-   3 1.94   4 1.94   5 1.94   5 1.94   4 1.94   3 1.94   2 3.29   2 3.34
                             2 3.34   2 3.34   2 3.39   2 3.39   2 3.39   2 3.43
   2  0.510  0.510  0.510-   3 2.69   4 2.69   5 2.69   3 2.75   4 2.75   3 2.75   5 2.75   4 2.75
                             5 2.75   3 2.80   4 2.80   5 2.80   1 3.29   1 3.34   1 3.34   1 3.34
   3  0.500  0.000  0.000-   1 1.94   1 1.94   2 2.69   2 2.75   2 2.75   2 2.80
   4  0.000  0.500  0.000-   1 1.94   1 1.94   2 2.69   2 2.75   2 2.75   2 2.80
   5  0.000  0.000  0.500-   1 1.94   1 1.94   2 2.69   2 2.75   2 2.75   2 2.80

  LATTYP: Found a simple cubic cell.
 ALAT       =     3.8822000000

  Lattice vectors:

 A1 = (   3.8822000000,   0.0000000000,   0.0000000000)
 A2 = (   0.0000000000,   3.8822000000,   0.0000000000)
 A3 = (   0.0000000000,   0.0000000000,   3.8822000000)

Analysis of symmetry for initial positions (statically):
 Subroutine PRICEL returns:
 Original cell was already a primitive cell.

 Routine SETGRP: Setting up the symmetry group for a
 simple cubic supercell.

 Subroutine GETGRP returns: Found  6 space group operations
 (whereof  6 operations were pure point group operations)
 out of a pool of 48 trial point group operations.

The static configuration has the point symmetry C_3v.

Analysis of symmetry for dynamics (positions and initial velocities):
 Subroutine PRICEL returns:
 Original cell was already a primitive cell.

 Routine SETGRP: Setting up the symmetry group for a
 simple cubic supercell.

 Subroutine GETGRP returns: Found  6 space group operations
 (whereof  6 operations were pure point group operations)
 out of a pool of 48 trial point group operations.

The dynamic configuration has the point symmetry C_3v.

 KPOINTS: k-points

Automatic generation of k-mesh.
Space group operators:
 irot       det(A)        alpha          n_x          n_y          n_z        tau_x        tau_y        tau_z
    1     1.000000     0.000000     1.000000     0.000000     0.000000     0.000000     0.000000     0.000000
    2     1.000000   120.000000    -0.577350    -0.577350    -0.577350     0.000000     0.000000     0.000000
    3     1.000000   120.000000     0.577350     0.577350     0.577350     0.000000     0.000000     0.000000
    4    -1.000000   180.000000     0.000000    -0.707107     0.707107     0.000000     0.000000     0.000000
    5    -1.000000   180.000000     0.707107    -0.707107     0.000000     0.000000     0.000000     0.000000
    6    -1.000000   180.000000     0.707107     0.000000    -0.707107     0.000000     0.000000     0.000000

 Subroutine IBZKPT returns following result:

 Found     19 irreducible k-points:

 Following reciprocal coordinates:
            Coordinates               Weight
  0.000000  0.000000  0.000000      1.000000
  0.200000  0.000000  0.000000      6.000000
  0.400000  0.000000  0.000000      6.000000
  0.200000  0.200000  0.000000      6.000000
  0.400000  0.200000  0.000000     12.000000
 -0.400000  0.200000  0.000000     12.000000
 -0.200000  0.200000  0.000000      6.000000
  0.400000  0.400000  0.000000      6.000000
 -0.400000  0.400000  0.000000      6.000000
  0.200000  0.200000  0.200000      2.000000
  0.400000  0.200000  0.200000      6.000000
 -0.400000  0.200000  0.200000      6.000000
 -0.200000  0.200000  0.200000      6.000000
  0.400000  0.400000  0.200000      6.000000
 -0.400000  0.400000  0.200000     12.000000
 -0.200000  0.400000  0.200000     12.000000
 -0.400000 -0.400000  0.200000      6.000000
  0.400000  0.400000  0.400000      2.000000
 -0.400000  0.400000  0.400000      6.000000

 Following cartesian coordinates:
            Coordinates               Weight
  0.000000  0.000000  0.000000      1.000000
  0.200000  0.000000  0.000000      6.000000
  0.400000  0.000000  0.000000      6.000000
  0.200000  0.200000  0.000000      6.000000
  0.400000  0.200000  0.000000     12.000000
 -0.400000  0.200000  0.000000     12.000000
 -0.200000  0.200000  0.000000      6.000000
  0.400000  0.400000  0.000000      6.000000
 -0.400000  0.400000  0.000000      6.000000
  0.200000  0.200000  0.200000      2.000000
  0.400000  0.200000  0.200000      6.000000
 -0.400000  0.200000  0.200000      6.000000
 -0.200000  0.200000  0.200000      6.000000
  0.400000  0.400000  0.200000      6.000000
 -0.400000  0.400000  0.200000     12.000000
 -0.200000  0.400000  0.200000     12.000000
 -0.400000 -0.400000  0.200000      6.000000
  0.400000  0.400000  0.400000      2.000000
 -0.400000  0.400000  0.400000      6.000000

 I would recommend the setting:
   dimension x,y,z NGX =    19 NGY =   19 NGZ =   19
 SYSTEM =  unknown system
 POSCAR =  CaTiO3

 Startparameter for this run:
   NWRITE =      2    write-flag & timer
   PREC   = normal    normal or accurate (medium, high low for compatibility)
   ISTART =      1    job   : 0-new  1-cont  2-samecut
   ICHARG =      0    charge: 1-file 2-atom 10-const
   ISPIN  =      1    spin polarized calculation?
   LNONCOLLINEAR =      F non collinear calculations
   LSORBIT =      F    spin-orbit coupling
   INIWAV =      1    electr: 0-lowe 1-rand  2-diag
   LASPH  =      F    aspherical Exc in radial PAW
   METAGGA=      F    non-selfconsistent MetaGGA calc.

 Electronic Relaxation 1
   ENCUT  =  400.0 eV  29.40 Ry    5.42 a.u.   6.33  6.33  6.33*2*pi/ulx,y,z
   ENINI  =  400.0     initial cutoff
   ENAUG  =  605.4 eV  augmentation charge cutoff
   NELM   =     60;   NELMIN=  2; NELMDL=  0     # of ELM steps
   EDIFF  = 0.1E-03   stopping-criterion for ELM
   LREAL  =      F    real-space projection
   NLSPLINE    = F    spline interpolate recip. space projectors
   LCOMPAT=      F    compatible to vasp.4.4
   GGA_COMPAT  = T    GGA compatible to vasp.4.4-vasp.4.6
   LMAXPAW     = -100 max onsite density
   LMAXMIX     =    2 max onsite mixed and CHGCAR
   VOSKOWN=      0    Vosko Wilk Nusair interpolation
   ROPT   =    0.00000   0.00000   0.00000
 Ionic relaxation
   EDIFFG = 0.1E-02   stopping-criterion for IOM
   NSW    =   1024    number of steps for IOM
   NBLOCK =      1;   KBLOCK =   1024    inner block; outer block
   IBRION =      2    ionic relax: 0-MD 1-quasi-New 2-CG
   NFREE  =      1    steps in history (QN), initial steepest desc. (CG)
   ISIF   =      2    stress and relaxation
   IWAVPR =     11    prediction:  0-non 1-charg 2-wave 3-comb
   ISYM   =      2    0-nonsym 1-usesym 2-fastsym
   LCORR  =      T    Harris-Foulkes like correction to forces

   POTIM  = 0.5000    time-step for ionic-motion
   TEIN   =    0.0    initial temperature
   TEBEG  =    0.0;   TEEND  =   0.0 temperature during run
   SMASS  =  -3.00    Nose mass-parameter (am)
   estimated Nose-frequenzy (Omega)   =  0.10E-29 period in steps =****** mass=  -0.344E-27a.u.
   SCALEE = 1.0000    scale energy and forces
   NPACO  =    256;   APACO  = 16.0  distance and # of slots for P.C.
   PSTRESS=    0.0 pullay stress

  Mass of Ions in am
   POMASS =  47.88 40.08 16.00
  Ionic Valenz
   ZVAL   =  10.00  8.00  6.00
  Atomic Wigner-Seitz radii
  virtual crystal weights
   VCA    =   1.00  1.00  1.00
   NELECT =      36.0000    total number of electrons
   NUPDOWN=      -1.0000    fix difference up-down

 DOS related values:
   EMIN   =  10.00;   EMAX   =-10.00  energy-range for DOS
   EFERMI =   0.00
   ISMEAR =     1;   SIGMA  =   0.20  broadening in eV -4-tet -1-fermi 0-gaus

 Electronic relaxation 2 (details)
   IALGO  =     38    algorithm
   LDIAG  =      T    sub-space diagonalisation (order eigenvalues)
   LSUBROT=      F    optimize rotation matrix (better conditioning)
   TURBO    =      0    0=normal 1=particle mesh
   IRESTART =      0    0=no restart 2=restart with 2 vectors
   NREBOOT  =      0    no. of reboots
   NMIN     =      0    reboot dimension
   EREF     =   0.00    reference energy to select bands
   IMIX   =      4    mixing-type and parameters
     AMIX     =   0.40;   BMIX     =  1.00
     AMIX_MAG =   1.60;   BMIX_MAG =  1.00
     AMIN     =   0.10
     WC   =   100.;   INIMIX=   1;  MIXPRE=   1;  MAXMIX= -45

 Intra band minimization:
   WEIMIN = 0.0010     energy-eigenvalue tresh-hold
   EBREAK =  0.11E-05  absolut break condition
   DEPER  =   0.30     relativ break condition

   TIME   =   0.40     timestep for ELM

  volume/ion in A,a.u.               =      11.70        78.97
  Fermi-wavevector in a.u.,A,eV,Ry     =   1.392401  2.631257 26.378723  1.938781
  Thomas-Fermi vector in A             =   2.516148

 Write flags
   LWAVE  =      T    write WAVECAR
   LCHARG =      T    write CHGCAR
   LVTOT  =      F    write LOCPOT, total local potential
   LVHAR  =      F    write LOCPOT, Hartree potential only
   LELF   =      F    write electronic localiz. function (ELF)
   LORBIT =      0    0 simple, 1 ext, 2 COOP (PROOUT)

 Dipole corrections
   LMONO  =      F    monopole corrections only (constant potential shift)
   LDIPOL =      F    correct potential (dipole corrections)
   IDIPOL =      0    1-x, 2-y, 3-z, 4-all directions
   EPSILON=  1.0000000 bulk dielectric constant

 Exchange correlation treatment:
   GGA     =    --    GGA type
   VOSKOWN=      0    Vosko Wilk Nusair interpolation
   LHFCALC =     F    Hartree Fock is set to
   LHFONE  =     F    Hartree Fock one center treatment
   AEXX    =    0.0000 exact exchange contribution

 Linear response parameters
   LEPSILON=     F    determine dielectric tensor
   LRPA    =     F    only Hartree local field effects (RPA)
   LNABLA  =     F    use nabla operator in PAW spheres
   LVEL    =     F    velocity operator in full k-point grid
   LINTERFAST=   F  fast interpolation
   KINTER  =     0    interpolate to denser k-point grid
[...]
  Hartree   227.91375   227.91375   227.91375     0.10616     0.10616     0.10616
  E(xc)    -170.15438  -170.15438  -170.15438     0.00022     0.00022     0.00022
  Local     -32.86625   -32.86625   -32.86625    -0.35936    -0.35936    -0.35936
  n-local   -90.46338   -88.72631   -84.90976     0.03571    -0.10406     0.08415
  augment   133.03917   133.03917   133.03917     0.00013     0.00013     0.00013
  Kinetic   513.84180   521.14076   528.02310     0.50718    -1.56876     1.09333
  Fock        0.00000     0.00000     0.00000     0.00000     0.00000     0.00000
  Total      -1.48407    -1.48407    -1.48407     0.02157     0.02157     0.02157
  in kB     -40.63796   -40.63796   -40.63796     0.59069     0.59069     0.59069

 VOLUME and BASIS-vectors are now :
  energy-cutoff  :      400.00
  volume of cell :       58.51
      direct lattice vectors                 reciprocal lattice vectors
     3.882200000  0.000000000  0.000000000     0.257585905  0.000000000  0.000000000
     0.000000000  3.882200000  0.000000000     0.000000000  0.257585905  0.000000000
     0.000000000  0.000000000  3.882200000     0.000000000  0.000000000  0.257585905

[...]

 FORCES acting on ions
    electron-ion (+dipol)            ewald-force                    non-local-force                 convergence-correction
   -.306E+01 -.306E+01 -.306E+01   0.321E+01 0.321E+01 0.321E+01   -.468E-01 -.468E-01 -.468E-01   -.376E-02 -.376E-02 -.376E-02
   0.906E+01 0.906E+01 0.906E+01   -.897E+01 -.897E+01 -.897E+01   -.110E+00 -.110E+00 -.110E+00   -.709E-02 -.709E-02 -.709E-02
   0.193E+01 -.355E+01 -.355E+01   -.206E+01 0.391E+01 0.391E+01   0.172E+00 -.399E+00 -.399E+00   -.424E-02 -.707E-02 -.707E-02
   -.355E+01 0.193E+01 -.355E+01   0.391E+01 -.206E+01 0.391E+01   -.399E+00 0.172E+00 -.399E+00   -.707E-02 -.424E-02 -.707E-02
   -.355E+01 -.355E+01 0.193E+01   0.391E+01 0.391E+01 -.206E+01   -.399E+00 -.399E+00 0.172E+00   -.707E-02 -.707E-02 -.424E-02
   0.819E+00 0.819E+00 0.819E+00   0.000E+00 0.444E-15 0.178E-14   -.784E+00 -.784E+00 -.784E+00   -.292E-01 -.292E-01 -.292E-01

 POSITION                                       TOTAL-FORCE (eV/Angst)
      0.00000      0.00000      0.00000         0.091482      0.091482      0.091482
      1.97992      1.97992      1.97992        -0.033807     -0.033807     -0.033807
      1.94110      0.00000      0.00000         0.039441     -0.048558     -0.048558
      0.00000      1.94110      0.00000        -0.048558      0.039441     -0.048558
      0.00000      0.00000      1.94110        -0.048558     -0.048558      0.039441
    total drift:                                0.005302      0.005302      0.005307

  FREE ENERGIE OF THE ION-ELECTRON SYSTEM (eV)
  free  energy   TOTEN  =       -40.06428462 eV

  energy  without entropy=      -40.07126974  energy(sigma->0) =      -40.06661299

 stress matrix after NEB project (eV)
     -1.48407      0.02157      0.02157
      0.02157     -1.48407      0.02157
      0.02157      0.02157     -1.48407
  FORCES: max atom, RMS     0.158452    0.097314
  FORCE total and by dimension    0.217601    0.091482
  Stress total and by dimension    2.571032    1.484072

[...]

 d Force = 0.1931140E-02[ 0.158E-02, 0.228E-02]  d Energy = 0.1958213E-02-0.271E-04
 d Force = 0.2899083E-01[ 0.384E-01, 0.196E-01]  d Ewald  = 0.2899024E-01 0.590E-06

 stress matrix after NEB project (eV)
     -1.49091      0.01743      0.01743
      0.01743     -1.49091      0.01743
      0.01743      0.01743     -1.49091
  FORCES: max atom, RMS     0.148859    0.076036
  FORCE total and by dimension    0.170022    0.085944
  Stress total and by dimension    2.582693    1.490915
 Steepest descent step on ions:
 trial-energy change:   -0.001958  1 .order   -0.001931   -0.002284   -0.001578
  (g-gl).g = 0.228E-02      g.g   = 0.228E-02  gl.gl    = 0.000E+00
 g(Force)  = 0.228E-02   g(Stress)= 0.000E+00 ortho     = 0.000E+00
 gamma     =   0.00000
 trial     =   1.00000
 opt step  =   3.23417  (harmonic =   3.23417) maximal distance =0.01427349
 next E    =   -40.067979   (d E  =  -0.00369)

[...]

 d Force = 0.1664961E-02[-0.196E-03, 0.353E-02]  d Energy = 0.1753614E-02-0.887E-04
 d Force = 0.1325280E+00[ 0.179E+00, 0.857E-01]  d Ewald  = 0.1325337E+00-0.572E-05

[...]

 stress matrix after NEB project (eV)
     -1.50174      0.01639      0.01639
      0.01639     -1.50174      0.01639
      0.01639      0.01639     -1.50174
  FORCES: max atom, RMS     0.112628    0.105150
  FORCE total and by dimension    0.235122    0.112517
  Stress total and by dimension    2.601393    1.501736
 Conjugate gradient step on ions:
 trial-energy change:   -0.001293  1 .order   -0.001263   -0.001325   -0.001200
  (g-gl).g = 0.328E-02      g.g   = 0.319E-02  gl.gl    = 0.228E-02
 g(Force)  = 0.319E-02   g(Stress)= 0.000E+00 ortho     =-0.875E-04
 gamma     =   1.43514
 trial     =   0.43235
 opt step  =   1.72940  (harmonic =   4.59199) maximal distance =0.01690520
 next E    =   -40.075034   (d E  =  -0.00704)

[...]

 d Force = 0.2504421E-02[ 0.141E-02, 0.360E-02]  d Energy = 0.2680302E-02-0.176E-03
 d Force =-0.3750499E-01[-0.153E+00, 0.778E-01]  d Ewald  =-0.3768271E-01 0.178E-03

[...]

 d Force = 0.1012147E-02[ 0.928E-03, 0.110E-02]  d Energy = 0.1020543E-02-0.840E-05
 d Force =-0.1402681E+00[-0.147E+00,-0.133E+00]  d Ewald  =-0.1402682E+00 0.139E-06

 stress matrix after NEB project (eV)
     -1.44120      0.02377      0.02377
      0.02377     -1.44120      0.02377
      0.02377      0.02377     -1.44120
  FORCES: max atom, RMS     0.130278    0.073450
  FORCE total and by dimension    0.164238    0.075216
  Stress total and by dimension    2.496916    1.441203
 Conjugate gradient step on ions:
 trial-energy change:   -0.001021  1 .order   -0.001012   -0.001096   -0.000928
  (g-gl).g =-0.417E-04      g.g   = 0.160E-02  gl.gl    = 0.319E-02
 g(Force)  = 0.160E-02   g(Stress)= 0.000E+00 ortho     = 0.109E-02
 gamma     =  -0.01308
 trial     =   0.69176
 opt step  =   2.76704  (harmonic =   4.49644) maximal distance =0.01050928
 next E    =   -40.075533   (d E  =  -0.00356)

[...]

 d Force = 0.1537310E-02[ 0.133E-02, 0.174E-02]  d Energy = 0.1526584E-02 0.107E-04
 d Force = 0.3607454E-01[ 0.285E-01, 0.436E-01]  d Ewald  = 0.3607675E-01-0.221E-05

 stress matrix after NEB project (eV)
     -1.39713      0.03321      0.03321
      0.03321     -1.39713      0.03321
      0.03321      0.03321     -1.39713
  FORCES: max atom, RMS     0.129078    0.086390
  FORCE total and by dimension    0.193174    0.074523
  Stress total and by dimension    2.421266    1.397130
 Steepest descent step on ions:
 trial-energy change:   -0.001527  1 .order   -0.001537   -0.001740   -0.001334
  (g-gl).g = 0.215E-02      g.g   = 0.268E-02  gl.gl    = 0.160E-02
 g(Force)  = 0.268E-02   g(Stress)= 0.000E+00 ortho     = 0.511E-03
 gamma     =   0.00000
 trial     =   0.64977
 opt step  =   2.59908  (harmonic =   2.78749) maximal distance =0.00850383
 next E    =   -40.078617   (d E  =  -0.00373)

[...]

 d Force = 0.1879619E-02[-0.244E-03, 0.400E-02]  d Energy = 0.1808919E-02 0.707E-04
 d Force = 0.1756523E-01[-0.505E-01, 0.856E-01]  d Ewald  = 0.1763389E-01-0.687E-04

[...]

 stress matrix after NEB project (eV)
     -1.42572      0.05608      0.05608
      0.05608     -1.42572      0.05608
      0.05608      0.05608     -1.42572
  FORCES: max atom, RMS     0.161855    0.140060
  FORCE total and by dimension    0.313184    0.144789
  Stress total and by dimension    2.473230    1.425715
 Conjugate gradient step on ions:
 trial-energy change:   -0.001009  1 .order   -0.001005   -0.000993   -0.001018
  (g-gl).g = 0.460E-02      g.g   = 0.447E-02  gl.gl    = 0.268E-02
 g(Force)  = 0.447E-02   g(Stress)= 0.000E+00 ortho     =-0.125E-03
 gamma     =   1.71666
 trial     =   0.23330
 opt step  =   0.93321  (harmonic =   0.93321) maximal distance =0.00938340
 next E    =   -40.082388   (d E  =  -0.00417)

[...]

 d Force =-0.2112484E-01[-0.563E-01, 0.141E-01]  d Energy =-0.1467678E-01-0.645E-02
 d Force =-0.7526435E+01[-0.935E+01,-0.571E+01]  d Ewald  =-0.7506586E+01-0.198E-01

[...]

 d Force = 0.4699067E-02[-0.507E-03, 0.990E-02]  d Energy = 0.4807225E-02-0.108E-03
 d Force =-0.2225293E+01[-0.242E+01,-0.203E+01]  d Ewald  =-0.2225354E+01 0.603E-04

 stress matrix after NEB project (eV)
     -0.78607      0.28147      0.28147
      0.28147     -0.78607      0.28147
      0.28147      0.28147     -0.78607
  FORCES: max atom, RMS     0.152379    0.083310
  FORCE total and by dimension    0.186286    0.087976
  Stress total and by dimension    1.526133    0.786071
 Conjugate gradient step on ions:
 trial-energy change:   -0.004807  1 .order   -0.004699   -0.009905    0.000507
  (g-gl).g = 0.309E-02      g.g   = 0.803E-02  gl.gl    = 0.447E-02
 g(Force)  = 0.803E-02   g(Stress)= 0.000E+00 ortho     = 0.104E-02
 gamma     =   0.68990
 trial     =   1.13218
 opt step  =   1.07707  (harmonic =   1.07707) maximal distance =0.01187707
 next E    =   -40.105913   (d E  =  -0.00471)

[...]

 d Force = 0.8461115E-05[-0.774E-05, 0.247E-04]  d Energy = 0.1018594E-04-0.172E-05
 d Force = 0.1172565E+00[ 0.117E+00, 0.118E+00]  d Ewald  = 0.1172565E+00-0.645E-08

[...]

 d Force = 0.1211164E-02[ 0.723E-03, 0.170E-02]  d Energy = 0.1186266E-02 0.249E-04
 d Force =-0.5980810E+00[-0.614E+00,-0.582E+00]  d Ewald  =-0.5980675E+00-0.135E-04

 stress matrix after NEB project (eV)
     -0.78416      0.29484      0.29484
      0.29484     -0.78416      0.29484
      0.29484      0.29484     -0.78416
  FORCES: max atom, RMS     0.063073    0.036368
  FORCE total and by dimension    0.081320    0.036415
  Stress total and by dimension    1.538275    0.784155
 Conjugate gradient step on ions:
 trial-energy change:   -0.001186  1 .order   -0.001211   -0.001699   -0.000723
  (g-gl).g = 0.143E-02      g.g   = 0.149E-02  gl.gl    = 0.803E-02
 g(Force)  = 0.149E-02   g(Stress)= 0.000E+00 ortho     = 0.140E-03
 gamma     =   0.17859
 trial     =   1.12116
 opt step  =   1.95109  (harmonic =   1.95109) maximal distance =0.00826594
 next E    =   -40.107498   (d E  =  -0.00148)

 FEWALD executed in parallel

[...]

 eigenvalue-minimisations  :  1188
 total energy-change (2. order) : 0.6415674E-03  (-0.2666524E-01)
 number of electron      36.0000069 magnetization
 augmentation part       11.1251415 magnetization

[...]

 Broyden mixing:
  rms(total) = 0.81884E-02    rms(broyden)= 0.81873E-02
  rms(prec ) = 0.10501E-01
  weight for this iteration     100.00

 eigenvalues of (default mixing * dielectric matrix)
  average eigenvalue GAMMA=   0.9705
  0.9705

[...]

----------------------------------------- Iteration   19(   3)  ---------------------------------------

 eigenvalue-minimisations  :  1518
 total energy-change (2. order) :-0.9437510E-05  (-0.3527315E-04)
 number of electron      36.0000069 magnetization
 augmentation part       11.1265688 magnetization

 Free energy of the ion-electron system (eV)
  alpha Z        PSCENC =       166.69949767
  Ewald energy   TEWEN  =     -2268.67325911
  -Hartree energ DENC   =      -692.53285329
  -exchange      EXHF   =         0.00000000
  -V(xc)+E(xc)   XCENC  =       137.79316349
  PAW double counting   =      3564.16539110    -3570.70766751
  entropy T*S    EENTRO =         0.00694259
  eigenvalues    EBANDS =      -328.91140135
  atomic energy  EATOM  =      2952.05274943
  free energy    TOTEN  =       -40.10743696 eV

  energy without entropy =      -40.11437955  energy(sigma->0) =      -40.10975116

 average (electrostatic) potential at core
  the test charge radii are     1.0397  1.2658  0.7215
  (the norm of the test charge is              1.0000)
       1 -53.0467       2 -45.4188       3 -70.1555       4 -70.1555       5 -70.1555

 E-fermi :   3.5826     XC(G=0): -10.9842     alpha+bet :-13.2781

[...]

 k-point    19 :      -0.4000    0.4000    0.4000
  band No.  band energies     occupation
      1     -29.0375      2.00000
      2     -29.0366      2.00000
      3     -29.0295      2.00000
      4     -16.5508      2.00000
      5     -16.5036      2.00000
      6     -16.5022      2.00000
      7     -12.5423      2.00000
      8     -12.4532      2.00000
      9     -12.4383      2.00000
     10      -0.8459      2.00000
     11      -0.6357      2.00000
     12      -0.5379      2.00000
     13      -0.4364      2.00000
     14      -0.1929      2.00000
     15      -0.0391      2.00000
     16       3.3258      2.06990
     17       3.3659      2.06356
     18       3.4561      1.86831
     19       7.8167     -0.00000
     20       7.9845     -0.00000
     21       8.0142     -0.00000
     22       9.5197      0.00000

 soft charge-density along one line, spin component           1
         0         1         2         3         4         5         6         7         8         9
 total charge-density along one line

------------------------ aborting loop because EDIFF is reached ----------------------------------------

  FORCE on cell =-STRESS in cart. coord.  units (eV):
  Direction    XX          YY          ZZ          XY          YZ          ZX
  Alpha Z   166.69950   166.69950   166.69950
  Ewald    -756.22508  -756.22508  -756.22508    -3.19529    -3.19529    -3.19529
  Hartree   230.84704   230.84704   230.84704    -1.56885    -1.56885    -1.56885
  E(xc)    -170.36659  -170.36659  -170.36659    -0.00804    -0.00804    -0.00804
  Local     -38.15486   -38.15486   -38.15486     4.77437     4.77437     4.77437
  n-local   -89.96991   -88.75427   -85.84375     0.08196    -0.13424     0.07331
  augment   132.81113   132.81113   132.81113    -0.02488    -0.02488    -0.02488
  Kinetic   515.38489   521.83512   528.17914     1.09838    -1.34156     1.22041
  Fock        0.00000     0.00000     0.00000     0.00000     0.00000     0.00000
  Total      -0.77846    -0.77846    -0.77846     0.31007     0.31007     0.31007
  in kB     -21.31641   -21.31641   -21.31641     8.49064     8.49064     8.49064

 VOLUME and BASIS-vectors are now :
  energy-cutoff  :      400.00
  volume of cell :       58.51
      direct lattice vectors                 reciprocal lattice vectors
     3.882200000  0.000000000  0.000000000     0.257585905  0.000000000  0.000000000
     0.000000000  3.882200000  0.000000000     0.000000000  0.257585905  0.000000000
     0.000000000  0.000000000  3.882200000     0.000000000  0.000000000  0.257585905

  length of vectors
     3.882200000  3.882200000  3.882200000     0.257585905  0.257585905  0.257585905

 FORCES acting on ions
    electron-ion (+dipol)            ewald-force                    non-local-force                 convergence-correction
   -.421E+01 -.421E+01 -.421E+01   0.409E+01 0.409E+01 0.409E+01   0.162E+00 0.162E+00 0.162E+00   -.413E-01 -.413E-01 -.413E-01
   0.389E+02 0.389E+02 0.389E+02   -.383E+02 -.383E+02 -.383E+02   -.627E+00 -.627E+00 -.627E+00   -.381E-03 -.381E-03 -.381E-03
   -.214E+02 -.456E+01 -.456E+01   0.252E+02 0.450E+01 0.450E+01   -.372E+01 0.317E-01 0.317E-01   -.171E-01 0.162E-01 0.162E-01
   -.456E+01 -.214E+02 -.456E+01   0.450E+01 0.252E+02 0.450E+01   0.317E-01 -.372E+01 0.317E-01   0.162E-01 -.171E-01 0.162E-01
   -.456E+01 -.456E+01 -.214E+02   0.450E+01 0.450E+01 0.252E+02   0.317E-01 0.317E-01 -.372E+01   0.162E-01 0.162E-01 -.171E-01
   0.414E+01 0.414E+01 0.414E+01   -.711E-14 0.888E-14 0.355E-14   -.413E+01 -.413E+01 -.413E+01   -.263E-01 -.263E-01 -.263E-01

 POSITION                                       TOTAL-FORCE (eV/Angst)
      0.05345      0.05345      0.05345         0.002253      0.002253      0.002253
      2.07517      2.07517      2.07517         0.000812      0.000812      0.000812
      1.91536     -0.06147     -0.06147         0.011273     -0.007169     -0.007169
     -0.06147      1.91536     -0.06147        -0.007169      0.011273     -0.007169
     -0.06147     -0.06147      1.91536        -0.007169     -0.007169      0.011273
    total drift:                               -0.007575     -0.007575     -0.007546

  FREE ENERGIE OF THE ION-ELECTRON SYSTEM (eV)
  free  energy   TOTEN  =       -40.10743696 eV

  energy  without entropy=      -40.11437955  energy(sigma->0) =      -40.10975116

 d Force = 0.2540485E-03[-0.270E-04, 0.535E-03]  d Energy = 0.2313766E-03 0.227E-04
 d Force =-0.4634964E+00[-0.472E+00,-0.455E+00]  d Ewald  =-0.4634816E+00-0.147E-04

 stress matrix after NEB project (eV)
     -0.77846      0.31007      0.31007
      0.31007     -0.77846      0.31007
      0.31007      0.31007     -0.77846
  FORCES: max atom, RMS     0.015162    0.011890
  FORCE total and by dimension    0.026586    0.011273
  Stress total and by dimension    1.547540    0.778462

 reached required accuracy - stopping structural energy minimisation
 writing wavefunctions