 vasp.5.3.5 31Mar14 (build Dec 17 2015 22:09:37) complex

 executed on             LinuxIFC date 2017.03.19  05:28:38

 INCAR:
 POTCAR:    PAW_PBE Ti_pv 07Sep2000
 POTCAR:    PAW_PBE Ca_pv 06Sep2000
 POTCAR:    PAW_PBE O 08Apr2002

 POTCAR:    PAW_PBE Ti_pv 07Sep2000
   VRHFIN =Ti: d3 s1

   TITEL  = PAW_PBE Ti_pv 07Sep2000
   POMASS =   47.880; ZVAL   =   10.000    mass and valenz
   ENMAX  =  222.335; ENMIN  =  166.751 eV

 POTCAR:    PAW_PBE Ca_pv 06Sep2000
   VRHFIN =Ca: p6s2d0.01

   TITEL  = PAW_PBE Ca_pv 06Sep2000
   POMASS =   40.078; ZVAL   =    8.000    mass and valenz
   ENMAX  =  119.559; ENMIN  =   89.670 eV

 POTCAR:    PAW_PBE O 08Apr2002
   VRHFIN =O: s2p4

   TITEL  = PAW_PBE O 08Apr2002
   POMASS =   16.000; ZVAL   =    6.000    mass and valenz
   ENMAX  =  400.000; ENMIN  =  300.000 eV

  PAW_PBE Ti_pv 07Sep2000               :
  PAW_PBE Ca_pv 06Sep2000               :
  PAW_PBE O 08Apr2002                   :

 POSCAR: CaTiO3
  positions in direct lattice
  velocities in cartesian coordinates
 exchange correlation table for  LEXCH =        8
   RHO(1)=    0.500       N(1)  =     2000
   RHO(2)=  100.500       N(2)  =     4000

 VTST: version 3.1, (03/28/14)

 CHAIN: initializing optimizer

 OPT: Using VASP Conjugate-Gradient optimizer
 CHAIN: Read ICHAIN            0

 POSCAR: CaTiO3
  positions in direct lattice
  velocities in cartesian coordinates

 ion  position               nearest neighbor table
   1  0.000  0.000  0.000-   3 1.94   4 1.94   5 1.94   5 1.94   4 1.94   3 1.94   2 3.23   2 3.27
                             2 3.32   2 3.37   2 3.37   2 3.41   2 3.45   2 3.50
   2  0.510  0.520  0.530-   3 2.61   4 2.64   5 2.67   4 2.69   5 2.72   3 2.72   3 2.78   5 2.78
                             4 2.80   5 2.83   4 2.86   3 2.88   1 3.23   1 3.27   1 3.32   1 3.37
   3  0.500  0.000  0.000-   1 1.94   1 1.94   2 2.61   2 2.72   2 2.78   2 2.88
   4  0.000  0.500  0.000-   1 1.94   1 1.94   2 2.64   2 2.69   2 2.80   2 2.86
   5  0.000  0.000  0.500-   1 1.94   1 1.94   2 2.67   2 2.72   2 2.78   2 2.83

  LATTYP: Found a simple cubic cell.
 ALAT       =     3.8822000000

  Lattice vectors:

 A1 = (   3.8822000000,   0.0000000000,   0.0000000000)
 A2 = (   0.0000000000,   3.8822000000,   0.0000000000)
 A3 = (   0.0000000000,   0.0000000000,   3.8822000000)

Analysis of symmetry for initial positions (statically):
 Subroutine PRICEL returns:
 Original cell was already a primitive cell.

 Routine SETGRP: Setting up the symmetry group for a
 simple cubic supercell.

 Subroutine GETGRP returns: Found  1 space group operations
 (whereof  1 operations were pure point group operations)
 out of a pool of 48 trial point group operations.

The static configuration has the point symmetry C_1 .

Analysis of symmetry for dynamics (positions and initial velocities):
 Subroutine PRICEL returns:
 Original cell was already a primitive cell.

[...]

The dynamic configuration has the point symmetry C_1 .

Analysis of constrained symmetry for selective dynamics:
 Subroutine PRICEL returns:
 Original cell was already a primitive cell.

 Routine SETGRP: Setting up the symmetry group for a
 simple cubic supercell.

 Subroutine GETGRP returns: Found  1 space group operations
 (whereof  1 operations were pure point group operations)
 out of a pool of 48 trial point group operations.

The constrained configuration has the point symmetry C_1 .

 KPOINTS: k-points

Automatic generation of k-mesh.
Space group operators:
 irot       det(A)        alpha          n_x          n_y          n_z        tau_x        tau_y        tau_z
    1     1.000000     0.000000     1.000000     0.000000     0.000000     0.000000     0.000000     0.000000

 Subroutine IBZKPT returns following result:

 Found     63 irreducible k-points:

 Following reciprocal coordinates:
            Coordinates               Weight
  0.000000  0.000000  0.000000      1.000000
  0.200000  0.000000  0.000000      2.000000
  0.400000  0.000000  0.000000      2.000000
  0.000000  0.200000  0.000000      2.000000
  0.200000  0.200000  0.000000      2.000000
  0.400000  0.200000  0.000000      2.000000
 -0.400000  0.200000  0.000000      2.000000
 -0.200000  0.200000  0.000000      2.000000
  0.000000  0.400000  0.000000      2.000000
  0.200000  0.400000  0.000000      2.000000
  0.400000  0.400000  0.000000      2.000000
 -0.400000  0.400000  0.000000      2.000000
 -0.200000  0.400000  0.000000      2.000000
  0.000000  0.000000  0.200000      2.000000
  0.200000  0.000000  0.200000      2.000000
  0.400000  0.000000  0.200000      2.000000
 -0.400000  0.000000  0.200000      2.000000
 -0.200000  0.000000  0.200000      2.000000
  0.000000  0.200000  0.200000      2.000000
  0.200000  0.200000  0.200000      2.000000
  0.400000  0.200000  0.200000      2.000000
 -0.400000  0.200000  0.200000      2.000000
 -0.200000  0.200000  0.200000      2.000000
  0.000000  0.400000  0.200000      2.000000
  0.200000  0.400000  0.200000      2.000000
  0.400000  0.400000  0.200000      2.000000
 -0.400000  0.400000  0.200000      2.000000
 -0.200000  0.400000  0.200000      2.000000
  0.000000 -0.400000  0.200000      2.000000
  0.200000 -0.400000  0.200000      2.000000
  0.400000 -0.400000  0.200000      2.000000
 -0.400000 -0.400000  0.200000      2.000000
 -0.200000 -0.400000  0.200000      2.000000
  0.000000 -0.200000  0.200000      2.000000
  0.200000 -0.200000  0.200000      2.000000
  0.400000 -0.200000  0.200000      2.000000
 -0.400000 -0.200000  0.200000      2.000000
 -0.200000 -0.200000  0.200000      2.000000
  0.000000  0.000000  0.400000      2.000000
  0.200000  0.000000  0.400000      2.000000
  0.400000  0.000000  0.400000      2.000000
 -0.400000  0.000000  0.400000      2.000000
 -0.200000  0.000000  0.400000      2.000000
  0.000000  0.200000  0.400000      2.000000
  0.200000  0.200000  0.400000      2.000000
  0.400000  0.200000  0.400000      2.000000
 -0.400000  0.200000  0.400000      2.000000
 -0.200000  0.200000  0.400000      2.000000
  0.000000  0.400000  0.400000      2.000000
  0.200000  0.400000  0.400000      2.000000
  0.400000  0.400000  0.400000      2.000000
 -0.400000  0.400000  0.400000      2.000000
 -0.200000  0.400000  0.400000      2.000000
  0.000000 -0.400000  0.400000      2.000000
  0.200000 -0.400000  0.400000      2.000000
  0.400000 -0.400000  0.400000      2.000000
 -0.400000 -0.400000  0.400000      2.000000
 -0.200000 -0.400000  0.400000      2.000000
  0.000000 -0.200000  0.400000      2.000000
  0.200000 -0.200000  0.400000      2.000000
  0.400000 -0.200000  0.400000      2.000000
 -0.400000 -0.200000  0.400000      2.000000
 -0.200000 -0.200000  0.400000      2.000000

 Following cartesian coordinates:
            Coordinates               Weight
  0.000000  0.000000  0.000000      1.000000
  0.200000  0.000000  0.000000      2.000000
  0.400000  0.000000  0.000000      2.000000
  0.000000  0.200000  0.000000      2.000000
  0.200000  0.200000  0.000000      2.000000
  0.400000  0.200000  0.000000      2.000000
 -0.400000  0.200000  0.000000      2.000000
 -0.200000  0.200000  0.000000      2.000000
  0.000000  0.400000  0.000000      2.000000
  0.200000  0.400000  0.000000      2.000000
  0.400000  0.400000  0.000000      2.000000
 -0.400000  0.400000  0.000000      2.000000
 -0.200000  0.400000  0.000000      2.000000
  0.000000  0.000000  0.200000      2.000000
  0.200000  0.000000  0.200000      2.000000
  0.400000  0.000000  0.200000      2.000000
 -0.400000  0.000000  0.200000      2.000000
 -0.200000  0.000000  0.200000      2.000000
  0.000000  0.200000  0.200000      2.000000
  0.200000  0.200000  0.200000      2.000000
  0.400000  0.200000  0.200000      2.000000
 -0.400000  0.200000  0.200000      2.000000
 -0.200000  0.200000  0.200000      2.000000
  0.000000  0.400000  0.200000      2.000000
  0.200000  0.400000  0.200000      2.000000
  0.400000  0.400000  0.200000      2.000000
 -0.400000  0.400000  0.200000      2.000000
 -0.200000  0.400000  0.200000      2.000000
  0.000000 -0.400000  0.200000      2.000000
  0.200000 -0.400000  0.200000      2.000000
  0.400000 -0.400000  0.200000      2.000000
 -0.400000 -0.400000  0.200000      2.000000
 -0.200000 -0.400000  0.200000      2.000000
  0.000000 -0.200000  0.200000      2.000000
  0.200000 -0.200000  0.200000      2.000000
  0.400000 -0.200000  0.200000      2.000000
 -0.400000 -0.200000  0.200000      2.000000
 -0.200000 -0.200000  0.200000      2.000000
  0.000000  0.000000  0.400000      2.000000
  0.200000  0.000000  0.400000      2.000000
  0.400000  0.000000  0.400000      2.000000
 -0.400000  0.000000  0.400000      2.000000
 -0.200000  0.000000  0.400000      2.000000
  0.000000  0.200000  0.400000      2.000000
  0.200000  0.200000  0.400000      2.000000
  0.400000  0.200000  0.400000      2.000000
 -0.400000  0.200000  0.400000      2.000000
 -0.200000  0.200000  0.400000      2.000000
  0.000000  0.400000  0.400000      2.000000
  0.200000  0.400000  0.400000      2.000000
  0.400000  0.400000  0.400000      2.000000
 -0.400000  0.400000  0.400000      2.000000
 -0.200000  0.400000  0.400000      2.000000
  0.000000 -0.400000  0.400000      2.000000
  0.200000 -0.400000  0.400000      2.000000
  0.400000 -0.400000  0.400000      2.000000
 -0.400000 -0.400000  0.400000      2.000000
 -0.200000 -0.400000  0.400000      2.000000
  0.000000 -0.200000  0.400000      2.000000
  0.200000 -0.200000  0.400000      2.000000
  0.400000 -0.200000  0.400000      2.000000
 -0.400000 -0.200000  0.400000      2.000000
 -0.200000 -0.200000  0.400000      2.000000

 I would recommend the setting:
   dimension x,y,z NGX =    19 NGY =   19 NGZ =   19
 SYSTEM =  unknown system
 POSCAR =  CaTiO3

 Startparameter for this run:
   NWRITE =      2    write-flag & timer
   PREC   = normal    normal or accurate (medium, high low for compatibility)
   ISTART =      1    job   : 0-new  1-cont  2-samecut
   ICHARG =      0    charge: 1-file 2-atom 10-const
   ISPIN  =      1    spin polarized calculation?
   LNONCOLLINEAR =      F non collinear calculations
   LSORBIT =      F    spin-orbit coupling
   INIWAV =      1    electr: 0-lowe 1-rand  2-diag
   LASPH  =      F    aspherical Exc in radial PAW
   METAGGA=      F    non-selfconsistent MetaGGA calc.

 Electronic Relaxation 1
   ENCUT  =  400.0 eV  29.40 Ry    5.42 a.u.   6.33  6.33  6.33*2*pi/ulx,y,z
   ENINI  =  400.0     initial cutoff
   ENAUG  =  605.4 eV  augmentation charge cutoff
   NELM   =     60;   NELMIN=  2; NELMDL=  0     # of ELM steps
   EDIFF  = 0.1E-03   stopping-criterion for ELM
   LREAL  =      F    real-space projection
   NLSPLINE    = F    spline interpolate recip. space projectors
   LCOMPAT=      F    compatible to vasp.4.4
   GGA_COMPAT  = T    GGA compatible to vasp.4.4-vasp.4.6
   LMAXPAW     = -100 max onsite density
   LMAXMIX     =    2 max onsite mixed and CHGCAR
   VOSKOWN=      0    Vosko Wilk Nusair interpolation
   ROPT   =    0.00000   0.00000   0.00000
 Ionic relaxation
   EDIFFG = 0.1E-02   stopping-criterion for IOM
   NSW    =   1024    number of steps for IOM
   NBLOCK =      1;   KBLOCK =   1024    inner block; outer block
[...]
  free energy    TOTEN  =       -42.67883209 eV

  energy without entropy =      -42.68554501  energy(sigma->0) =      -42.68106973

[...]

 eigenvalue-minimisations  :  2882
 total energy-change (2. order) : 0.2412801E+01  (-0.7529784E+00)
 number of electron      35.9999985 magnetization
 augmentation part       11.1275497 magnetization

[...]

 eigenvalues of (default mixing * dielectric matrix)
  average eigenvalue GAMMA=   1.2157
  1.2157

[...]

 average (electrostatic) potential at core
  the test charge radii are     1.0397  1.2658  0.7215
  (the norm of the test charge is              1.0000)
       1 -53.1530       2 -45.5861       3 -70.0951       4 -70.0973       5 -70.0961

 E-fermi :   3.6817     XC(G=0): -11.0061     alpha+bet :-13.2781

 k-point     1 :       0.0000    0.0000    0.0000
  band No.  band energies     occupation
      1     -29.0439      2.00000
      2     -29.0430      2.00000
      3     -29.0412      2.00000
      4     -16.5689      2.00000
      5     -16.5616      2.00000
      6     -16.5599      2.00000
      7     -13.8739      2.00000
      8     -12.7867      2.00000
      9     -12.7776      2.00000
     10       0.6379      2.00000
     11       0.6427      2.00000
     12       0.6476      2.00000
     13       2.5393      2.00000
     14       2.5489      2.00000
     15       2.5701      2.00000
     16       3.2804      2.01567
     17       3.2810      2.01583
     18       3.2851      2.01691
     19       5.5564     -0.00000
     20       5.5756     -0.00000
     21       5.5765     -0.00000
     22       8.0464     -0.00000

[...]

 soft charge-density along one line, spin component           1
         0         1         2         3         4         5         6         7         8         9
 total charge-density along one line

------------------------ aborting loop because EDIFF is reached ----------------------------------------

  FORCE on cell =-STRESS in cart. coord.  units (eV):
  Direction    XX          YY          ZZ          XY          YZ          ZX
  Alpha Z   166.69950   166.69950   166.69950
  Ewald    -755.75269  -757.95381  -761.63152     0.50864     1.55241     0.77123
  Hartree   230.18414   228.82024   226.51348     0.20788     0.63510     0.31535
  E(xc)    -170.18050  -170.18168  -170.18377     0.00039     0.00101     0.00057
  Local     -38.42385   -34.88326   -28.93144    -0.70497    -2.15300    -1.06920
  n-local   -87.99881   -88.00730   -88.02332     0.00973     0.03208     0.01553
  augment   133.01842   133.01842   133.02015     0.00019     0.00072     0.00023
  Kinetic   521.06427   521.09067   521.13216     0.02138     0.06164     0.03129
  Fock        0.00000     0.00000     0.00000     0.00000     0.00000     0.00000
  Total      -1.38954    -1.39722    -1.40476     0.04325     0.12998     0.06499
  in kB     -38.04930   -38.25958   -38.46614     1.18438     3.55909     1.77954

 VOLUME and BASIS-vectors are now :
  energy-cutoff  :      400.00
  volume of cell :       58.51
      direct lattice vectors                 reciprocal lattice vectors
     3.882200000  0.000000000  0.000000000     0.257585905  0.000000000  0.000000000
     0.000000000  3.882200000  0.000000000     0.000000000  0.257585905  0.000000000
     0.000000000  0.000000000  3.882200000     0.000000000  0.000000000  0.257585905

[...]

 FORCES acting on ions
    electron-ion (+dipol)            ewald-force                    non-local-force                 convergence-correction
   -.309E+01 -.615E+01 -.916E+01   0.324E+01 0.645E+01 0.960E+01   -.471E-01 -.940E-01 -.140E+00   -.572E-02 -.951E-02 -.138E-01
   0.910E+01 0.181E+02 0.271E+02   -.904E+01 -.180E+02 -.269E+02   -.118E+00 -.235E+00 -.350E+00   0.131E-01 0.281E-01 0.442E-01
   0.195E+01 -.720E+01 -.107E+02   -.208E+01 0.793E+01 0.118E+02   0.168E+00 -.807E+00 -.120E+01   0.429E-02 -.132E-01 -.216E-01
   -.360E+01 0.388E+01 -.106E+02   0.396E+01 -.414E+01 0.117E+02   -.404E+00 0.334E+00 -.120E+01   -.637E-02 0.620E-02 -.211E-01
   -.356E+01 -.706E+01 0.576E+01   0.392E+01 0.778E+01 -.616E+01   -.402E+00 -.801E+00 0.496E+00   -.657E-02 -.140E-01 0.110E-01
   0.805E+00 0.160E+01 0.239E+01   -.133E-14 0.178E-14 -.178E-14   -.803E+00 -.160E+01 -.239E+01   -.128E-02 -.236E-02 -.119E-02

 POSITION                                       TOTAL-FORCE (eV/Angst)
      0.00000      0.00000      0.00000         0.095875      0.190299      0.282172
      1.97992      2.01874      2.05757        -0.040441     -0.078955     -0.112326
      1.94110      0.00000      0.00000         0.039115     -0.091719     -0.141291
      0.00000      1.94110      0.00000        -0.046168      0.078466     -0.143916
      0.00000      0.00000      1.94110        -0.048382     -0.098092      0.115361
    total drift:                                0.000014      0.000001      0.001638

  FREE ENERGIE OF THE ION-ELECTRON SYSTEM (eV)
  free  energy   TOTEN  =       -40.05683054 eV

  energy  without entropy=      -40.06373902  energy(sigma->0) =      -40.05913337

 stress matrix after NEB project (eV)
     -1.38954      0.04325      0.06499
      0.04325     -1.39722      0.12998
      0.06499      0.12998     -1.40476
  FORCES: max atom, RMS     0.353591    0.170595
  FORCE total and by dimension    0.381462    0.282172
  Stress total and by dimension    2.429474    1.404759

[...]

 d Force = 0.6385668E-02[ 0.575E-02, 0.702E-02]  d Energy = 0.6376501E-02 0.917E-05
 d Force = 0.3823124E+00[ 0.328E+00, 0.437E+00]  d Ewald  = 0.3823018E+00 0.107E-04

 stress matrix after NEB project (eV)
     -1.40877      0.03363      0.05097
      0.03363     -1.40169      0.10315
      0.05097      0.10315     -1.39069
  FORCES: max atom, RMS     0.300421    0.140352
  FORCE total and by dimension    0.313837    0.240654
  Stress total and by dimension    2.431488    1.408769
 Steepest descent step on ions:
 trial-energy change:   -0.006377  1 .order   -0.006386   -0.007020   -0.005751
  (g-gl).g = 0.702E-02      g.g   = 0.702E-02  gl.gl    = 0.000E+00
 g(Force)  = 0.702E-02   g(Stress)= 0.000E+00 ortho     = 0.000E+00
 gamma     =   0.00000
 trial     =   1.00000
 opt step  =   4.00000  (harmonic =   5.53387) maximal distance =0.05445088
 next E    =   -40.076254   (d E  =  -0.01942)

[...]

 d Force = 0.9986773E-02[ 0.272E-02, 0.173E-01]  d Energy = 0.1080238E-01-0.816E-03
 d Force = 0.4963123E+00[ 0.874E-02, 0.984E+00]  d Ewald  = 0.4958374E+00 0.475E-03

[...]

 d Force = 0.6619494E-03[ 0.676E-03, 0.648E-03]  d Energy = 0.6908133E-03-0.289E-04
 d Force =-0.1540501E+00[-0.158E+00,-0.150E+00]  d Ewald  =-0.1540506E+00 0.518E-06

 stress matrix after NEB project (eV)
     -1.44404      0.01831      0.02764
      0.01831     -1.34442      0.05685
      0.02764      0.05685     -1.19108
  FORCES: max atom, RMS     0.081558    0.045723
  FORCE total and by dimension    0.102239    0.058906
  Stress total and by dimension    2.306524    1.444042
 Conjugate gradient step on ions:
 trial-energy change:   -0.000691  1 .order   -0.000662   -0.000648   -0.000676
  (g-gl).g =-0.444E-03      g.g   = 0.462E-03  gl.gl    = 0.702E-02
 g(Force)  = 0.462E-03   g(Stress)= 0.000E+00 ortho     = 0.906E-03
 gamma     =  -0.06325
 trial     =   1.60000
 opt step  =   6.40000  (harmonic =   6.40000) maximal distance =0.01724132
 next E    =   -40.076823   (d E  =  -0.00281)

[...]

 stress matrix after NEB project (eV)
     -1.33585      0.03687      0.05868
      0.03687     -1.11937      0.12482
      0.05868      0.12483     -0.86481
  FORCES: max atom, RMS     0.065711    0.033729
  FORCE total and by dimension    0.075421    0.046022
  Stress total and by dimension    1.956058    1.335853
 Steepest descent step on ions:
 trial-energy change:   -0.001209  1 .order   -0.001214   -0.001684   -0.000745
  (g-gl).g = 0.412E-03      g.g   = 0.537E-03  gl.gl    = 0.462E-03
 g(Force)  = 0.537E-03   g(Stress)= 0.000E+00 ortho     = 0.210E-03
 gamma     =   0.00000
 trial     =   3.13737
 opt step  =   5.62703  (harmonic =   5.62703) maximal distance =0.01865424
 next E    =   -40.081146   (d E  =  -0.00151)

[...]

 d Force = 0.2666222E-03[-0.579E-04, 0.591E-03]  d Energy = 0.2290952E-03 0.375E-04
 d Force =-0.3571532E+00[-0.381E+00,-0.333E+00]  d Ewald  =-0.3571478E+00-0.539E-05

[...]

 stress matrix after NEB project (eV)
     -1.27055      0.05413      0.08293
      0.05413     -1.06350      0.17160
      0.08293      0.17160     -0.79523
  FORCES: max atom, RMS     0.101293    0.046661
  FORCE total and by dimension    0.104338    0.074159
  Stress total and by dimension    1.859087    1.270547
 Conjugate gradient step on ions:
 trial-energy change:   -0.000887  1 .order   -0.000896   -0.000952   -0.000840
  (g-gl).g = 0.538E-03      g.g   = 0.515E-03  gl.gl    = 0.537E-03
 g(Force)  = 0.515E-03   g(Stress)= 0.000E+00 ortho     =-0.233E-04
 gamma     =   1.00212
 trial     =   1.93766
 opt step  =   7.75065  (harmonic =  16.45633) maximal distance =0.03470956
 next E    =   -40.085116   (d E  =  -0.00404)

[...]

 d Force = 0.1677025E-02[ 0.835E-03, 0.252E-02]  d Energy = 0.1720834E-02-0.438E-04
 d Force =-0.1776059E+01[-0.192E+01,-0.163E+01]  d Ewald  =-0.1775996E+01-0.630E-04

[...]

 d Force = 0.2882642E-03[-0.180E-03, 0.757E-03]  d Energy = 0.2954913E-03-0.723E-05
 d Force =-0.1735701E-01[-0.338E-01,-0.929E-03]  d Ewald  =-0.1737066E-01 0.136E-04

 stress matrix after NEB project (eV)
     -1.18848      0.07292      0.11247
      0.07292     -0.86470      0.22128
      0.11247      0.22128     -0.51936
  FORCES: max atom, RMS     0.024587    0.013810
  FORCE total and by dimension    0.030880    0.016431
  Stress total and by dimension    1.601180    1.188475
 Conjugate gradient step on ions:
 trial-energy change:   -0.000295  1 .order   -0.000288   -0.000757    0.000180
  (g-gl).g =-0.418E-04      g.g   = 0.256E-03  gl.gl    = 0.515E-03
 g(Force)  = 0.256E-03   g(Stress)= 0.000E+00 ortho     = 0.144E-03
 gamma     =  -0.08127
 trial     =   3.10026
 opt step  =   2.50445  (harmonic =   2.50445) maximal distance =0.00664238
 next E    =   -40.083987   (d E  =  -0.00031)

 FEWALD executed in parallel

[...]

 eigenvalue-minimisations  :  2838
 total energy-change (2. order) :-0.8651878E-04  (-0.1101368E-03)
 number of electron      36.0000048 magnetization
 augmentation part       11.1234741 magnetization

 Broyden mixing:
  rms(total) = 0.23754E-02    rms(broyden)= 0.23749E-02
  rms(prec ) = 0.32837E-02
  weight for this iteration     100.00

 eigenvalues of (default mixing * dielectric matrix)
  average eigenvalue GAMMA=   0.8521
  0.8521

[...]

----------------------------------------- Iteration   12(   3)  ---------------------------------------

 eigenvalue-minimisations  :  1738
 total energy-change (2. order) : 0.4306171E-06  (-0.3423403E-05)
 number of electron      36.0000048 magnetization
 augmentation part       11.1234741 magnetization

 Free energy of the ion-electron system (eV)
  alpha Z        PSCENC =       166.69949767
  Ewald energy   TEWEN  =     -2271.27411522
  -Hartree energ DENC   =      -689.92893277
  -exchange      EXHF   =         0.00000000
  -V(xc)+E(xc)   XCENC  =       137.75762808
  PAW double counting   =      3565.98094155    -3572.54797907
  entropy T*S    EENTRO =         0.00671630
  eigenvalues    EBANDS =      -328.83049841
  atomic energy  EATOM  =      2952.05274943
  free energy    TOTEN  =       -40.08399243 eV

  energy without entropy =      -40.09070873  energy(sigma->0) =      -40.08623120

 average (electrostatic) potential at core
  the test charge radii are     1.0397  1.2658  0.7215
  (the norm of the test charge is              1.0000)
       1 -53.0310       2 -45.5319       3 -70.1022       4 -70.1265       5 -70.1535

 E-fermi :   3.6244     XC(G=0): -10.9933     alpha+bet :-13.2781

[...]

 k-point    63 :      -0.2000   -0.2000    0.4000
  band No.  band energies     occupation
      1     -29.0347      2.00000
      2     -28.9790      2.00000
      3     -28.9693      2.00000
      4     -16.6856      2.00000
      5     -16.5621      2.00000
      6     -16.5391      2.00000
      7     -13.0184      2.00000
      8     -12.6344      2.00000
      9     -12.4407      2.00000
     10      -0.6632      2.00000
     11      -0.1923      2.00000
     12       0.0961      2.00000
     13       0.3980      2.00000
     14       0.7564      2.00000
     15       1.3898      2.00000
     16       2.5466      2.00000
     17       2.6096      2.00000
     18       2.8749      2.00000
     19       6.9040     -0.00000
     20       7.5138     -0.00000
     21       7.5993     -0.00000
     22       9.7376      0.00000

 soft charge-density along one line, spin component           1
         0         1         2         3         4         5         6         7         8         9
 total charge-density along one line

------------------------ aborting loop because EDIFF is reached ----------------------------------------

  FORCE on cell =-STRESS in cart. coord.  units (eV):
  Direction    XX          YY          ZZ          XY          YZ          ZX
  Alpha Z   166.69950   166.69950   166.69950
  Ewald    -756.50465  -756.56803  -758.20366    -1.96398    -3.59544    -2.39220
  Hartree   231.36026   230.35018   228.20463    -0.93497    -1.74522    -1.14662
  E(xc)    -170.31730  -170.31684  -170.31800    -0.00357    -0.00721    -0.00450
  Local     -38.47022   -37.40072   -33.58227     2.89865     5.31564     3.53098
  n-local   -88.11767   -88.12373   -88.14394    -0.02638    -0.02710    -0.02539
  augment   132.86157   132.88612   132.89977    -0.01196    -0.02191    -0.01450
  Kinetic   521.29318   521.59252   521.91251     0.11443     0.30271     0.16410
  Fock        0.00000     0.00000     0.00000     0.00000     0.00000     0.00000
  Total      -1.19533    -0.88101    -0.53146     0.07222     0.22147     0.11187
  in kB     -32.73150   -24.12448   -14.55294     1.97756     6.06443     3.06338

 VOLUME and BASIS-vectors are now :
  energy-cutoff  :      400.00
  volume of cell :       58.51
      direct lattice vectors                 reciprocal lattice vectors
     3.882200000  0.000000000  0.000000000     0.257585905  0.000000000  0.000000000
     0.000000000  3.882200000  0.000000000     0.000000000  0.257585905  0.000000000
     0.000000000  0.000000000  3.882200000     0.000000000  0.000000000  0.257585905

  length of vectors
     3.882200000  3.882200000  3.882200000     0.257585905  0.257585905  0.257585905

 FORCES acting on ions
    electron-ion (+dipol)            ewald-force                    non-local-force                 convergence-correction
   0.544E+01 0.821E+01 0.992E+01   -.543E+01 -.821E+01 -.996E+01   0.173E-01 0.303E-01 0.551E-01   -.126E-01 -.248E-01 -.127E-01
   0.135E+02 0.256E+02 0.367E+02   -.133E+02 -.251E+02 -.361E+02   -.229E+00 -.421E+00 -.589E+00   -.111E-02 -.195E-02 -.829E-03
   -.160E+02 -.206E+01 -.363E+01   0.181E+02 0.230E+01 0.404E+01   -.189E+01 -.419E+00 -.661E+00   -.728E-02 0.539E-02 0.255E-02
   -.387E+00 -.262E+02 -.313E+01   0.450E+00 0.297E+02 0.349E+01   -.165E+00 -.311E+01 -.626E+00   0.245E-02 -.140E-01 0.259E-02
   -.118E+00 -.122E+01 -.339E+02   0.155E+00 0.138E+01 0.385E+02   -.147E+00 -.361E+00 -.408E+01   0.240E-02 0.539E-02 -.719E-02
   0.243E+01 0.431E+01 0.591E+01   0.128E-14 -.178E-14 0.000E+00   -.241E+01 -.429E+01 -.590E+01   -.161E-01 -.300E-01 -.156E-01

 POSITION                                       TOTAL-FORCE (eV/Angst)
      0.04405      0.07332      0.09604         0.009639      0.006108     -0.005723
      2.01349      2.07513      2.13158         0.010375      0.008667      0.012000
      1.94110      0.00000      0.00000         0.188074     -0.171439     -0.249113
      0.00000      1.94110      0.00000        -0.100075      0.352428     -0.263154
      0.00000      0.00000      1.94110        -0.108013     -0.195764      0.505989
    total drift:                                0.002061     -0.005097     -0.000551

  FREE ENERGIE OF THE ION-ELECTRON SYSTEM (eV)
  free  energy   TOTEN  =       -40.08399243 eV

  energy  without entropy=      -40.09070873  energy(sigma->0) =      -40.08623120

 d Force = 0.1445290E-04[-0.568E-05, 0.346E-04]  d Energy = 0.1540100E-04-0.948E-06
 d Force = 0.5887316E-02[ 0.528E-02, 0.649E-02]  d Ewald  = 0.5887414E-02-0.982E-07

 stress matrix after NEB project (eV)
     -1.19533      0.07222      0.11187
      0.07222     -0.88101      0.22147
      0.11187      0.22147     -0.53146
  FORCES: max atom, RMS     0.018077    0.009897
  FORCE total and by dimension    0.022130    0.012000
  Stress total and by dimension    1.618955    1.195333

 reached required accuracy - stopping structural energy minimisation
 writing wavefunctions