 vasp.5.3.5 31Mar14 (build Dec 17 2015 22:09:37) complex

 executed on             LinuxIFC date 2017.03.19  16:23:36

 INCAR:
 POTCAR:    PAW_PBE Ti_pv 07Sep2000
 POTCAR:    PAW_PBE Ca_pv 06Sep2000
 POTCAR:    PAW_PBE O 08Apr2002

 POTCAR:    PAW_PBE Ti_pv 07Sep2000
   VRHFIN =Ti: d3 s1

   TITEL  = PAW_PBE Ti_pv 07Sep2000
   POMASS =   47.880; ZVAL   =   10.000    mass and valenz
   ENMAX  =  222.335; ENMIN  =  166.751 eV

 POTCAR:    PAW_PBE Ca_pv 06Sep2000
   VRHFIN =Ca: p6s2d0.01

   TITEL  = PAW_PBE Ca_pv 06Sep2000
   POMASS =   40.078; ZVAL   =    8.000    mass and valenz
   ENMAX  =  119.559; ENMIN  =   89.670 eV

 POTCAR:    PAW_PBE O 08Apr2002
   VRHFIN =O: s2p4

   TITEL  = PAW_PBE O 08Apr2002
   POMASS =   16.000; ZVAL   =    6.000    mass and valenz
   ENMAX  =  400.000; ENMIN  =  300.000 eV

  PAW_PBE Ti_pv 07Sep2000               :
  PAW_PBE Ca_pv 06Sep2000               :
  PAW_PBE O 08Apr2002                   :

 POSCAR: CaTiO3
  positions in direct lattice
  velocities in cartesian coordinates
 exchange correlation table for  LEXCH =        8
   RHO(1)=    0.500       N(1)  =     2000
   RHO(2)=  100.500       N(2)  =     4000

 VTST: version 3.1, (03/28/14)

 CHAIN: initializing optimizer

 OPT: Using VASP Conjugate-Gradient optimizer
 CHAIN: Read ICHAIN            0

 POSCAR: CaTiO3
  positions in direct lattice
  velocities in cartesian coordinates

 ion  position               nearest neighbor table
   1  0.000  0.000  0.000-   3 1.94   4 1.94   5 1.94   5 1.94   4 1.94   3 1.94   2 3.23   2 3.27
                             2 3.32   2 3.37   2 3.37   2 3.41   2 3.45   2 3.50
   2  0.510  0.520  0.530-   3 2.61   4 2.64   5 2.67   4 2.69   5 2.72   3 2.72   3 2.78   5 2.78
                             4 2.80   5 2.83   4 2.86   3 2.88   1 3.23   1 3.27   1 3.32   1 3.37
   3  0.500  0.000  0.000-   1 1.94   1 1.94   2 2.61   2 2.72   2 2.78   2 2.88
   4  0.000  0.500  0.000-   1 1.94   1 1.94   2 2.64   2 2.69   2 2.80   2 2.86
   5  0.000  0.000  0.500-   1 1.94   1 1.94   2 2.67   2 2.72   2 2.78   2 2.83

  LATTYP: Found a simple cubic cell.
 ALAT       =     3.8822000000

  Lattice vectors:

 A1 = (   3.8822000000,   0.0000000000,   0.0000000000)
 A2 = (   0.0000000000,   3.8822000000,   0.0000000000)
 A3 = (   0.0000000000,   0.0000000000,   3.8822000000)

Analysis of symmetry for initial positions (statically):
 Subroutine PRICEL returns:
 Original cell was already a primitive cell.

 Routine SETGRP: Setting up the symmetry group for a
 simple cubic supercell.

 Subroutine GETGRP returns: Found  1 space group operations
 (whereof  1 operations were pure point group operations)
 out of a pool of 48 trial point group operations.

The static configuration has the point symmetry C_1 .

Analysis of symmetry for dynamics (positions and initial velocities):
 Subroutine PRICEL returns:
 Original cell was already a primitive cell.

[...]

The dynamic configuration has the point symmetry C_1 .

Analysis of constrained symmetry for selective dynamics:
 Subroutine PRICEL returns:
 Original cell was already a primitive cell.

 Routine SETGRP: Setting up the symmetry group for a
 simple cubic supercell.

 Subroutine GETGRP returns: Found  1 space group operations
 (whereof  1 operations were pure point group operations)
 out of a pool of 48 trial point group operations.

The constrained configuration has the point symmetry C_1 .

 KPOINTS: k-points

Automatic generation of k-mesh.
Space group operators:
 irot       det(A)        alpha          n_x          n_y          n_z        tau_x        tau_y        tau_z
    1     1.000000     0.000000     1.000000     0.000000     0.000000     0.000000     0.000000     0.000000

 Subroutine IBZKPT returns following result:

 Found     63 irreducible k-points:

 Following reciprocal coordinates:
            Coordinates               Weight
  0.000000  0.000000  0.000000      1.000000
  0.200000  0.000000  0.000000      2.000000
  0.400000  0.000000  0.000000      2.000000
  0.000000  0.200000  0.000000      2.000000
  0.200000  0.200000  0.000000      2.000000
  0.400000  0.200000  0.000000      2.000000
 -0.400000  0.200000  0.000000      2.000000
 -0.200000  0.200000  0.000000      2.000000
  0.000000  0.400000  0.000000      2.000000
  0.200000  0.400000  0.000000      2.000000
  0.400000  0.400000  0.000000      2.000000
 -0.400000  0.400000  0.000000      2.000000
 -0.200000  0.400000  0.000000      2.000000
  0.000000  0.000000  0.200000      2.000000
  0.200000  0.000000  0.200000      2.000000
  0.400000  0.000000  0.200000      2.000000
 -0.400000  0.000000  0.200000      2.000000
 -0.200000  0.000000  0.200000      2.000000
  0.000000  0.200000  0.200000      2.000000
  0.200000  0.200000  0.200000      2.000000
  0.400000  0.200000  0.200000      2.000000
 -0.400000  0.200000  0.200000      2.000000
 -0.200000  0.200000  0.200000      2.000000
  0.000000  0.400000  0.200000      2.000000
  0.200000  0.400000  0.200000      2.000000
  0.400000  0.400000  0.200000      2.000000
 -0.400000  0.400000  0.200000      2.000000
 -0.200000  0.400000  0.200000      2.000000
  0.000000 -0.400000  0.200000      2.000000
  0.200000 -0.400000  0.200000      2.000000
  0.400000 -0.400000  0.200000      2.000000
 -0.400000 -0.400000  0.200000      2.000000
 -0.200000 -0.400000  0.200000      2.000000
  0.000000 -0.200000  0.200000      2.000000
  0.200000 -0.200000  0.200000      2.000000
  0.400000 -0.200000  0.200000      2.000000
 -0.400000 -0.200000  0.200000      2.000000
 -0.200000 -0.200000  0.200000      2.000000
  0.000000  0.000000  0.400000      2.000000
  0.200000  0.000000  0.400000      2.000000
  0.400000  0.000000  0.400000      2.000000
 -0.400000  0.000000  0.400000      2.000000
 -0.200000  0.000000  0.400000      2.000000
  0.000000  0.200000  0.400000      2.000000
  0.200000  0.200000  0.400000      2.000000
  0.400000  0.200000  0.400000      2.000000
 -0.400000  0.200000  0.400000      2.000000
 -0.200000  0.200000  0.400000      2.000000
  0.000000  0.400000  0.400000      2.000000
  0.200000  0.400000  0.400000      2.000000
  0.400000  0.400000  0.400000      2.000000
 -0.400000  0.400000  0.400000      2.000000
 -0.200000  0.400000  0.400000      2.000000
  0.000000 -0.400000  0.400000      2.000000
  0.200000 -0.400000  0.400000      2.000000
  0.400000 -0.400000  0.400000      2.000000
 -0.400000 -0.400000  0.400000      2.000000
 -0.200000 -0.400000  0.400000      2.000000
  0.000000 -0.200000  0.400000      2.000000
  0.200000 -0.200000  0.400000      2.000000
  0.400000 -0.200000  0.400000      2.000000
 -0.400000 -0.200000  0.400000      2.000000
 -0.200000 -0.200000  0.400000      2.000000

 Following cartesian coordinates:
            Coordinates               Weight
  0.000000  0.000000  0.000000      1.000000
  0.200000  0.000000  0.000000      2.000000
  0.400000  0.000000  0.000000      2.000000
  0.000000  0.200000  0.000000      2.000000
  0.200000  0.200000  0.000000      2.000000
  0.400000  0.200000  0.000000      2.000000
 -0.400000  0.200000  0.000000      2.000000
 -0.200000  0.200000  0.000000      2.000000
  0.000000  0.400000  0.000000      2.000000
  0.200000  0.400000  0.000000      2.000000
  0.400000  0.400000  0.000000      2.000000
 -0.400000  0.400000  0.000000      2.000000
 -0.200000  0.400000  0.000000      2.000000
  0.000000  0.000000  0.200000      2.000000
  0.200000  0.000000  0.200000      2.000000
  0.400000  0.000000  0.200000      2.000000
 -0.400000  0.000000  0.200000      2.000000
 -0.200000  0.000000  0.200000      2.000000
  0.000000  0.200000  0.200000      2.000000
  0.200000  0.200000  0.200000      2.000000
  0.400000  0.200000  0.200000      2.000000
 -0.400000  0.200000  0.200000      2.000000
 -0.200000  0.200000  0.200000      2.000000
  0.000000  0.400000  0.200000      2.000000
  0.200000  0.400000  0.200000      2.000000
  0.400000  0.400000  0.200000      2.000000
 -0.400000  0.400000  0.200000      2.000000
 -0.200000  0.400000  0.200000      2.000000
  0.000000 -0.400000  0.200000      2.000000
  0.200000 -0.400000  0.200000      2.000000
  0.400000 -0.400000  0.200000      2.000000
 -0.400000 -0.400000  0.200000      2.000000
 -0.200000 -0.400000  0.200000      2.000000
  0.000000 -0.200000  0.200000      2.000000
  0.200000 -0.200000  0.200000      2.000000
  0.400000 -0.200000  0.200000      2.000000
 -0.400000 -0.200000  0.200000      2.000000
 -0.200000 -0.200000  0.200000      2.000000
  0.000000  0.000000  0.400000      2.000000
  0.200000  0.000000  0.400000      2.000000
  0.400000  0.000000  0.400000      2.000000
 -0.400000  0.000000  0.400000      2.000000
 -0.200000  0.000000  0.400000      2.000000
  0.000000  0.200000  0.400000      2.000000
  0.200000  0.200000  0.400000      2.000000
  0.400000  0.200000  0.400000      2.000000
 -0.400000  0.200000  0.400000      2.000000
 -0.200000  0.200000  0.400000      2.000000
  0.000000  0.400000  0.400000      2.000000
  0.200000  0.400000  0.400000      2.000000
  0.400000  0.400000  0.400000      2.000000
 -0.400000  0.400000  0.400000      2.000000
 -0.200000  0.400000  0.400000      2.000000
  0.000000 -0.400000  0.400000      2.000000
  0.200000 -0.400000  0.400000      2.000000
  0.400000 -0.400000  0.400000      2.000000
 -0.400000 -0.400000  0.400000      2.000000
 -0.200000 -0.400000  0.400000      2.000000
  0.000000 -0.200000  0.400000      2.000000
  0.200000 -0.200000  0.400000      2.000000
  0.400000 -0.200000  0.400000      2.000000
 -0.400000 -0.200000  0.400000      2.000000
 -0.200000 -0.200000  0.400000      2.000000

 I would recommend the setting:
   dimension x,y,z NGX =    19 NGY =   19 NGZ =   19
 SYSTEM =  unknown system
 POSCAR =  CaTiO3

 Startparameter for this run:
   NWRITE =      2    write-flag & timer
   PREC   = normal    normal or accurate (medium, high low for compatibility)
   ISTART =      0    job   : 0-new  1-cont  2-samecut
   ICHARG =      2    charge: 1-file 2-atom 10-const
   ISPIN  =      1    spin polarized calculation?
   LNONCOLLINEAR =      F non collinear calculations
   LSORBIT =      F    spin-orbit coupling
   INIWAV =      1    electr: 0-lowe 1-rand  2-diag
   LASPH  =      F    aspherical Exc in radial PAW
   METAGGA=      F    non-selfconsistent MetaGGA calc.

 Electronic Relaxation 1
   ENCUT  =  400.0 eV  29.40 Ry    5.42 a.u.   6.33  6.33  6.33*2*pi/ulx,y,z
   ENINI  =  400.0     initial cutoff
   ENAUG  =  605.4 eV  augmentation charge cutoff
   NELM   =     60;   NELMIN=  2; NELMDL= -5     # of ELM steps
   EDIFF  = 0.1E-03   stopping-criterion for ELM
   LREAL  =      F    real-space projection
   NLSPLINE    = F    spline interpolate recip. space projectors
   LCOMPAT=      F    compatible to vasp.4.4
   GGA_COMPAT  = T    GGA compatible to vasp.4.4-vasp.4.6
   LMAXPAW     = -100 max onsite density
   LMAXMIX     =    2 max onsite mixed and CHGCAR
   VOSKOWN=      0    Vosko Wilk Nusair interpolation
   ROPT   =    0.00000   0.00000   0.00000
 Ionic relaxation
   EDIFFG = 0.1E-02   stopping-criterion for IOM
   NSW    =   1024    number of steps for IOM
   NBLOCK =      1;   KBLOCK =   1024    inner block; outer block
[...]

[...]

 eigenvalue-minimisations  :  5258
 total energy-change (2. order) :-0.2596897E+03  (-0.2561968E+03)
 number of electron      36.0000000 magnetization
 augmentation part       36.0000000 magnetization

[...]

 Broyden mixing:
  rms(total) = 0.30931E+01    rms(broyden)= 0.30928E+01
  rms(prec ) = 0.53668E+01
  weight for this iteration     100.00

[...]

 eigenvalues of (default mixing * dielectric matrix)
  average eigenvalue GAMMA=   0.9853
  0.9853

[...]

 average (electrostatic) potential at core
  the test charge radii are     1.0397  1.2658  0.7215
  (the norm of the test charge is              1.0000)
       1 -53.1508       2 -45.5885       3 -70.0957       4 -70.0930       5 -70.0891

 E-fermi :   3.6838     XC(G=0): -11.0066     alpha+bet :-13.2781

 k-point     1 :       0.0000    0.0000    0.0000
  band No.  band energies     occupation
      1     -29.0423      2.00000
      2     -29.0413      2.00000
      3     -29.0394      2.00000
      4     -16.5713      2.00000
      5     -16.5635      2.00000
      6     -16.5618      2.00000
      7     -13.8722      2.00000
      8     -12.7861      2.00000
      9     -12.7743      2.00000
     10       0.6398      2.00000
     11       0.6441      2.00000
     12       0.6492      2.00000
     13       2.5405      2.00000
     14       2.5517      2.00000
     15       2.5717      2.00000
     16       3.2822      2.01559
     17       3.2829      2.01576
     18       3.2879      2.01706
     19       5.5572     -0.00000
     20       5.5766     -0.00000
     21       5.5776     -0.00000
     22       8.0484     -0.00000

[...]

 soft charge-density along one line, spin component           1
         0         1         2         3         4         5         6         7         8         9
 total charge-density along one line

------------------------ aborting loop because EDIFF is reached ----------------------------------------

  FORCE on cell =-STRESS in cart. coord.  units (eV):
  Direction    XX          YY          ZZ          XY          YZ          ZX
  Alpha Z   166.69950   166.69950   166.69950
  Ewald    -755.75269  -757.95381  -761.63152     0.50864     1.55241     0.77123
  Hartree   230.20296   228.79298   226.45995     0.20816     0.63581     0.31577
  E(xc)    -170.18310  -170.18446  -170.18669     0.00028     0.00086     0.00043
  Local     -38.46733   -34.86782   -28.88396    -0.70574    -2.15454    -1.07023
  n-local   -87.99224   -88.00056   -88.01750     0.00971     0.03192     0.01543
  augment   133.01647   133.01715   133.01926    -0.00031    -0.00057    -0.00046
  Kinetic   521.03455   521.05531   521.09717     0.02140     0.06148     0.03125
  Fock        0.00000     0.00000     0.00000     0.00000     0.00000     0.00000
  Total      -1.44187    -1.44170    -1.44379     0.04215     0.12737     0.06342
  in kB     -39.48244   -39.47780   -39.53483     1.15408     3.48773     1.73667

 VOLUME and BASIS-vectors are now :
  energy-cutoff  :      400.00
  volume of cell :       58.51
      direct lattice vectors                 reciprocal lattice vectors
     3.882200000  0.000000000  0.000000000     0.257585905  0.000000000  0.000000000
     0.000000000  3.882200000  0.000000000     0.000000000  0.257585905  0.000000000
     0.000000000  0.000000000  3.882200000     0.000000000  0.000000000  0.257585905

[...]

 FORCES acting on ions
    electron-ion (+dipol)            ewald-force                    non-local-force                 convergence-correction
   -.309E+01 -.616E+01 -.917E+01   0.324E+01 0.645E+01 0.960E+01   -.489E-01 -.973E-01 -.144E+00   -.101E-02 -.175E-02 -.246E-02
   0.911E+01 0.182E+02 0.271E+02   -.904E+01 -.180E+02 -.269E+02   -.114E+00 -.228E+00 -.340E+00   0.117E-02 0.151E-02 0.140E-02
   0.195E+01 -.721E+01 -.107E+02   -.208E+01 0.793E+01 0.118E+02   0.170E+00 -.811E+00 -.121E+01   0.131E-03 0.638E-03 0.101E-02
   -.361E+01 0.388E+01 -.106E+02   0.396E+01 -.414E+01 0.117E+02   -.406E+00 0.337E+00 -.120E+01   0.271E-03 0.191E-03 0.103E-02
   -.356E+01 -.707E+01 0.577E+01   0.392E+01 0.778E+01 -.616E+01   -.404E+00 -.804E+00 0.500E+00   0.286E-03 0.661E-03 0.226E-03
   0.803E+00 0.160E+01 0.239E+01   -.133E-14 0.178E-14 -.178E-14   -.803E+00 -.160E+01 -.239E+01   0.851E-03 0.125E-02 0.121E-02

 POSITION                                       TOTAL-FORCE (eV/Angst)
      0.00000      0.00000      0.00000         0.095506      0.189644      0.280986
      1.97992      2.01874      2.05757        -0.039944     -0.077613     -0.109737
      1.94110      0.00000      0.00000         0.039592     -0.092468     -0.142127
      0.00000      1.94110      0.00000        -0.046673      0.078586     -0.145323
      0.00000      0.00000      1.94110        -0.048481     -0.098147      0.116201
    total drift:                               -0.000008     -0.000402     -0.000374

  FREE ENERGIE OF THE ION-ELECTRON SYSTEM (eV)
  free  energy   TOTEN  =       -40.05683161 eV

  energy  without entropy=      -40.06374103  energy(sigma->0) =      -40.05913475

 stress matrix after NEB project (eV)
     -1.44187      0.04215      0.06342
      0.04215     -1.44170      0.12737
      0.06342      0.12737     -1.44379
  FORCES: max atom, RMS     0.352192    0.169529
  FORCE total and by dimension    0.379079    0.280986
  Stress total and by dimension    2.507204    1.443787

[...]

 d Force = 0.6323960E-02[ 0.572E-02, 0.693E-02]  d Energy = 0.6342491E-02-0.185E-04
 d Force = 0.3775299E+00[ 0.324E+00, 0.431E+00]  d Ewald  = 0.3775195E+00 0.105E-04

 stress matrix after NEB project (eV)
     -1.40715      0.03369      0.05108
      0.03369     -1.40115      0.10324
      0.05108      0.10324     -1.39064
  FORCES: max atom, RMS     0.300168    0.140270
  FORCE total and by dimension    0.313654    0.240494
  Stress total and by dimension    2.430224    1.407147
 Steepest descent step on ions:
 trial-energy change:   -0.006342  1 .order   -0.006324   -0.006933   -0.005715
  (g-gl).g = 0.693E-02      g.g   = 0.693E-02  gl.gl    = 0.000E+00
 g(Force)  = 0.693E-02   g(Stress)= 0.000E+00 ortho     = 0.000E+00
 gamma     =   0.00000
 trial     =   1.00000
 opt step  =   4.00000  (harmonic =   5.69600) maximal distance =0.05422201
 next E    =   -40.076575   (d E  =  -0.01974)

[...]

 d Force = 0.1001850E-01[ 0.289E-02, 0.171E-01]  d Energy = 0.1084524E-01-0.827E-03
 d Force = 0.4911497E+00[ 0.105E-01, 0.972E+00]  d Ewald  = 0.4906815E+00 0.468E-03

[...]

 d Force = 0.6650786E-03[ 0.680E-03, 0.651E-03]  d Energy = 0.6936714E-03-0.286E-04
 d Force =-0.1536373E+00[-0.157E+00,-0.150E+00]  d Ewald  =-0.1536378E+00 0.510E-06

 stress matrix after NEB project (eV)
     -1.44377      0.01847      0.02792
      0.01847     -1.34459      0.05749
      0.02792      0.05749     -1.19206
  FORCES: max atom, RMS     0.084095    0.046363
  FORCE total and by dimension    0.103671    0.061160
  Stress total and by dimension    2.307002    1.443771
 Conjugate gradient step on ions:
 trial-energy change:   -0.000694  1 .order   -0.000665   -0.000651   -0.000680
  (g-gl).g =-0.489E-03      g.g   = 0.475E-03  gl.gl    = 0.693E-02
 g(Force)  = 0.475E-03   g(Stress)= 0.000E+00 ortho     = 0.964E-03
 gamma     =  -0.07054
 trial     =   1.60000
 opt step  =   6.40000  (harmonic =   6.40000) maximal distance =0.01709356
 next E    =   -40.076854   (d E  =  -0.00283)

[...]

 stress matrix after NEB project (eV)
     -1.33569      0.03704      0.05894
      0.03704     -1.11912      0.12540
      0.05894      0.12540     -0.86372
  FORCES: max atom, RMS     0.065123    0.033725
  FORCE total and by dimension    0.075411    0.045698
  Stress total and by dimension    1.955414    1.335687
 Steepest descent step on ions:
 trial-energy change:   -0.001201  1 .order   -0.001207   -0.001672   -0.000741
  (g-gl).g = 0.408E-03      g.g   = 0.525E-03  gl.gl    = 0.475E-03
 g(Force)  = 0.525E-03   g(Stress)= 0.000E+00 ortho     = 0.210E-03
 gamma     =   0.00000
 trial     =   3.18305
 opt step  =   5.71994  (harmonic =   5.71994) maximal distance =0.01897342
 next E    =   -40.081163   (d E  =  -0.00150)

[...]

 d Force = 0.2658077E-03[-0.593E-04, 0.591E-03]  d Energy = 0.2288067E-03 0.370E-04
 d Force =-0.3647355E+00[-0.389E+00,-0.341E+00]  d Ewald  =-0.3647303E+00-0.521E-05

[...]

 stress matrix after NEB project (eV)
     -1.27014      0.05397      0.08290
      0.05397     -1.06234      0.17195
      0.08290      0.17195     -0.79752
  FORCES: max atom, RMS     0.102299    0.047060
  FORCE total and by dimension    0.105229    0.076037
  Stress total and by dimension    1.859188    1.270143
 Conjugate gradient step on ions:
 trial-energy change:   -0.000866  1 .order   -0.000874   -0.000927   -0.000822
  (g-gl).g = 0.546E-03      g.g   = 0.523E-03  gl.gl    = 0.525E-03
 g(Force)  = 0.523E-03   g(Stress)= 0.000E+00 ortho     =-0.234E-04
 gamma     =   1.03942
 trial     =   1.86119
 opt step  =   7.44477  (harmonic =  16.34031) maximal distance =0.03399988
 next E    =   -40.085161   (d E  =  -0.00407)

[...]

 d Force = 0.1671894E-02[ 0.879E-03, 0.246E-02]  d Energy = 0.1711162E-02-0.393E-04
 d Force =-0.1733263E+01[-0.187E+01,-0.159E+01]  d Ewald  =-0.1733208E+01-0.557E-04

[...]

 eigenvalue-minimisations  :  3212
 total energy-change (2. order) : 0.2033122E-02  (-0.6608805E-01)
 number of electron      36.0000046 magnetization
 augmentation part       11.1253969 magnetization

[...]

 eigenvalues of (default mixing * dielectric matrix)
  average eigenvalue GAMMA=   0.9456
  0.9456

[...]

 d Force = 0.3400694E-03[-0.495E-04, 0.730E-03]  d Energy = 0.3023730E-03 0.377E-04
 d Force =-0.1689954E-02[-0.171E-01, 0.137E-01]  d Ewald  =-0.1703056E-02 0.131E-04

 stress matrix after NEB project (eV)
     -1.18743      0.07359      0.11281
      0.07359     -0.87132      0.22247
      0.11281      0.22247     -0.52264
  FORCES: max atom, RMS     0.022678    0.011550
  FORCE total and by dimension    0.025826    0.014571
  Stress total and by dimension    1.605492    1.187425
 Conjugate gradient step on ions:
 trial-energy change:   -0.000302  1 .order   -0.000340   -0.000730    0.000050
  (g-gl).g =-0.525E-04      g.g   = 0.261E-03  gl.gl    = 0.523E-03
 g(Force)  = 0.261E-03   g(Stress)= 0.000E+00 ortho     = 0.157E-03
 gamma     =  -0.10052
 trial     =   2.97791
 opt step  =   2.78863  (harmonic =   2.78863) maximal distance =0.00717622
 next E    =   -40.084009   (d E  =  -0.00034)

 FEWALD executed in parallel

[...]

 Broyden mixing:
  rms(total) = 0.25237E-02    rms(broyden)= 0.25219E-02
  rms(prec ) = 0.38356E-02
  weight for this iteration     100.00

[...]

----------------------------------------- Iteration   12(   2)  ---------------------------------------

 eigenvalue-minimisations  :  2882
 total energy-change (2. order) :-0.5342027E-05  (-0.1276614E-04)
 number of electron      36.0000047 magnetization
 augmentation part       11.1230243 magnetization

 Free energy of the ion-electron system (eV)
  alpha Z        PSCENC =       166.69949767
  Ewald energy   TEWEN  =     -2271.32102512
  -Hartree energ DENC   =      -689.89204996
  -exchange      EXHF   =         0.00000000
  -V(xc)+E(xc)   XCENC  =       137.75790543
  PAW double counting   =      3565.66531710    -3572.23210218
  entropy T*S    EENTRO =         0.00671696
  eigenvalues    EBANDS =      -328.82097673
  atomic energy  EATOM  =      2952.05274943
  free energy    TOTEN  =       -40.08396739 eV

  energy without entropy =      -40.09068435  energy(sigma->0) =      -40.08620638

 average (electrostatic) potential at core
  the test charge radii are     1.0397  1.2658  0.7215
  (the norm of the test charge is              1.0000)
       1 -53.0315       2 -45.5332       3 -70.1004       4 -70.1253       5 -70.1519

 E-fermi :   3.6254     XC(G=0): -10.9934     alpha+bet :-13.2781

[...]

 k-point    63 :      -0.2000   -0.2000    0.4000
  band No.  band energies     occupation
      1     -29.0352      2.00000
      2     -28.9795      2.00000
      3     -28.9696      2.00000
      4     -16.6864      2.00000
      5     -16.5631      2.00000
      6     -16.5402      2.00000
      7     -13.0177      2.00000
      8     -12.6333      2.00000
      9     -12.4398      2.00000
     10      -0.6628      2.00000
     11      -0.1917      2.00000
     12       0.0962      2.00000
     13       0.3992      2.00000
     14       0.7575      2.00000
     15       1.3904      2.00000
     16       2.5474      2.00000
     17       2.6103      2.00000
     18       2.8758      2.00000
     19       6.9047     -0.00000
     20       7.5138     -0.00000
     21       7.5994     -0.00000
     22       9.7378      0.00000

 soft charge-density along one line, spin component           1
         0         1         2         3         4         5         6         7         8         9
 total charge-density along one line

------------------------ aborting loop because EDIFF is reached ----------------------------------------

  FORCE on cell =-STRESS in cart. coord.  units (eV):
  Direction    XX          YY          ZZ          XY          YZ          ZX
  Alpha Z   166.69950   166.69950   166.69950
  Ewald    -756.59768  -756.53263  -758.19293    -2.01259    -3.68971    -2.43702
  Hartree   231.31000   230.36553   228.21261    -0.95587    -1.78539    -1.16571
  E(xc)    -170.31751  -170.31700  -170.31816    -0.00359    -0.00725    -0.00451
  Local     -38.31511   -37.44057   -33.58900     2.96854     5.45000     3.59520
  n-local   -88.11674   -88.12229   -88.14279    -0.02706    -0.02873    -0.02608
  augment   132.86619   132.89073   132.90424    -0.01184    -0.02167    -0.01435
  Kinetic   521.27881   521.58176   521.89874     0.11422     0.30259     0.16349
  Fock        0.00000     0.00000     0.00000     0.00000     0.00000     0.00000
  Total      -1.19254    -0.87498    -0.52779     0.07180     0.21984     0.11103
  in kB     -32.65508   -23.95929   -14.45234     1.96621     6.01983     3.04037

 VOLUME and BASIS-vectors are now :
  energy-cutoff  :      400.00
  volume of cell :       58.51
      direct lattice vectors                 reciprocal lattice vectors
     3.882200000  0.000000000  0.000000000     0.257585905  0.000000000  0.000000000
     0.000000000  3.882200000  0.000000000     0.000000000  0.257585905  0.000000000
     0.000000000  0.000000000  3.882200000     0.000000000  0.000000000  0.257585905

  length of vectors
     3.882200000  3.882200000  3.882200000     0.257585905  0.257585905  0.257585905

 FORCES acting on ions
    electron-ion (+dipol)            ewald-force                    non-local-force                 convergence-correction
   0.554E+01 0.842E+01 0.100E+02   -.554E+01 -.843E+01 -.101E+02   0.126E-01 0.237E-01 0.517E-01   -.107E-01 -.221E-01 -.128E-01
   0.134E+02 0.253E+02 0.365E+02   -.131E+02 -.249E+02 -.359E+02   -.227E+00 -.416E+00 -.586E+00   -.422E-03 -.293E-02 -.757E-03
   -.162E+02 -.189E+01 -.352E+01   0.182E+02 0.212E+01 0.392E+01   -.190E+01 -.401E+00 -.649E+00   0.185E-02 -.361E-03 -.909E-03
   -.294E+00 -.265E+02 -.302E+01   0.351E+00 0.300E+02 0.338E+01   -.155E+00 -.315E+01 -.615E+00   -.464E-03 0.328E-02 -.841E-03
   -.277E-01 -.105E+01 -.341E+02   0.583E-01 0.120E+01 0.386E+02   -.137E+00 -.343E+00 -.409E+01   -.602E-03 -.631E-03 0.365E-02
   0.242E+01 0.431E+01 0.590E+01   -.406E-14 0.000E+00 0.711E-14   -.241E+01 -.429E+01 -.589E+01   -.104E-01 -.228E-01 -.117E-01

 POSITION                                       TOTAL-FORCE (eV/Angst)
      0.04428      0.07388      0.09628         0.006784      0.000234     -0.009800
      2.01291      2.07428      2.13085         0.012286      0.012387      0.014460
      1.94110      0.00000      0.00000         0.187385     -0.170462     -0.248297
      0.00000      1.94110      0.00000        -0.099360      0.352321     -0.262157
      0.00000      0.00000      1.94110        -0.107096     -0.194480      0.505794
    total drift:                                0.001225     -0.004201     -0.001032

  FREE ENERGIE OF THE ION-ELECTRON SYSTEM (eV)
  free  energy   TOTEN  =       -40.08396739 eV

  energy  without entropy=      -40.09068435  energy(sigma->0) =      -40.08620638

 d Force = 0.3870587E-05[ 0.459E-05, 0.315E-05]  d Energy =-0.2615067E-05 0.649E-05
 d Force = 0.1022814E-02[ 0.961E-03, 0.108E-02]  d Ewald  = 0.1022817E-02-0.343E-08

 stress matrix after NEB project (eV)
     -1.19254      0.07180      0.11103
      0.07180     -0.87498      0.21984
      0.11103      0.21984     -0.52779
  FORCES: max atom, RMS     0.022660    0.011451
  FORCE total and by dimension    0.025605    0.014460
  Stress total and by dimension    1.611811    1.192543

 reached required accuracy - stopping structural energy minimisation
 writing wavefunctions