 vasp.5.3.5 31Mar14 (build Dec 17 2015 22:09:37) complex

 executed on             LinuxIFC date 2017.03.19  05:22:05

 INCAR:
 POTCAR:    PAW_PBE Ti_pv 07Sep2000
 POTCAR:    PAW_PBE Ca_pv 06Sep2000
 POTCAR:    PAW_PBE O 08Apr2002

 POTCAR:    PAW_PBE Ti_pv 07Sep2000
   VRHFIN =Ti: d3 s1

   TITEL  = PAW_PBE Ti_pv 07Sep2000
   POMASS =   47.880; ZVAL   =   10.000    mass and valenz
   ENMAX  =  222.335; ENMIN  =  166.751 eV

 POTCAR:    PAW_PBE Ca_pv 06Sep2000
   VRHFIN =Ca: p6s2d0.01

   TITEL  = PAW_PBE Ca_pv 06Sep2000
   POMASS =   40.078; ZVAL   =    8.000    mass and valenz
   ENMAX  =  119.559; ENMIN  =   89.670 eV

 POTCAR:    PAW_PBE O 08Apr2002
   VRHFIN =O: s2p4

   TITEL  = PAW_PBE O 08Apr2002
   POMASS =   16.000; ZVAL   =    6.000    mass and valenz
   ENMAX  =  400.000; ENMIN  =  300.000 eV

  PAW_PBE Ti_pv 07Sep2000               :
  PAW_PBE Ca_pv 06Sep2000               :
  PAW_PBE O 08Apr2002                   :

 POSCAR: CaTiO3
  positions in direct lattice
  velocities in cartesian coordinates
 exchange correlation table for  LEXCH =        8
   RHO(1)=    0.500       N(1)  =     2000
   RHO(2)=  100.500       N(2)  =     4000

 VTST: version 3.1, (03/28/14)

 CHAIN: initializing optimizer

 OPT: Using VASP Conjugate-Gradient optimizer
 CHAIN: Read ICHAIN            0

 POSCAR: CaTiO3
  positions in direct lattice
  velocities in cartesian coordinates

 ion  position               nearest neighbor table
   1  0.000  0.000  0.000-   3 1.94   4 1.94   5 1.94   5 1.94   4 1.94   3 1.94   2 3.29   2 3.34
                             2 3.34   2 3.34   2 3.39   2 3.39   2 3.39   2 3.43
   2  0.510  0.510  0.510-   3 2.69   4 2.69   5 2.69   3 2.75   4 2.75   3 2.75   5 2.75   4 2.75
                             5 2.75   3 2.80   4 2.80   5 2.80   1 3.29   1 3.34   1 3.34   1 3.34
   3  0.500  0.000  0.000-   1 1.94   1 1.94   2 2.69   2 2.75   2 2.75   2 2.80
   4  0.000  0.500  0.000-   1 1.94   1 1.94   2 2.69   2 2.75   2 2.75   2 2.80
   5  0.000  0.000  0.500-   1 1.94   1 1.94   2 2.69   2 2.75   2 2.75   2 2.80

  LATTYP: Found a simple cubic cell.
 ALAT       =     3.8822000000

  Lattice vectors:

 A1 = (   3.8822000000,   0.0000000000,   0.0000000000)
 A2 = (   0.0000000000,   3.8822000000,   0.0000000000)
 A3 = (   0.0000000000,   0.0000000000,   3.8822000000)

Analysis of symmetry for initial positions (statically):
 Subroutine PRICEL returns:
 Original cell was already a primitive cell.

 Routine SETGRP: Setting up the symmetry group for a
 simple cubic supercell.

 Subroutine GETGRP returns: Found  6 space group operations
 (whereof  6 operations were pure point group operations)
 out of a pool of 48 trial point group operations.

The static configuration has the point symmetry C_3v.

Analysis of symmetry for dynamics (positions and initial velocities):
 Subroutine PRICEL returns:
 Original cell was already a primitive cell.

[...]

The dynamic configuration has the point symmetry C_3v.

Analysis of constrained symmetry for selective dynamics:
 Subroutine PRICEL returns:
 Original cell was already a primitive cell.

 Routine SETGRP: Setting up the symmetry group for a
 simple cubic supercell.

 Subroutine GETGRP returns: Found  6 space group operations
 (whereof  6 operations were pure point group operations)
 out of a pool of 48 trial point group operations.

The constrained configuration has the point symmetry C_3v.

 KPOINTS: k-points

Automatic generation of k-mesh.
Space group operators:
 irot       det(A)        alpha          n_x          n_y          n_z        tau_x        tau_y        tau_z
    1     1.000000     0.000000     1.000000     0.000000     0.000000     0.000000     0.000000     0.000000
    2     1.000000   120.000000    -0.577350    -0.577350    -0.577350     0.000000     0.000000     0.000000
    3     1.000000   120.000000     0.577350     0.577350     0.577350     0.000000     0.000000     0.000000
    4    -1.000000   180.000000     0.000000    -0.707107     0.707107     0.000000     0.000000     0.000000
    5    -1.000000   180.000000     0.707107    -0.707107     0.000000     0.000000     0.000000     0.000000
    6    -1.000000   180.000000     0.707107     0.000000    -0.707107     0.000000     0.000000     0.000000

 Subroutine IBZKPT returns following result:

 Found     19 irreducible k-points:

 Following reciprocal coordinates:
            Coordinates               Weight
  0.000000  0.000000  0.000000      1.000000
  0.200000  0.000000  0.000000      6.000000
  0.400000  0.000000  0.000000      6.000000
  0.200000  0.200000  0.000000      6.000000
  0.400000  0.200000  0.000000     12.000000
 -0.400000  0.200000  0.000000     12.000000
 -0.200000  0.200000  0.000000      6.000000
  0.400000  0.400000  0.000000      6.000000
 -0.400000  0.400000  0.000000      6.000000
  0.200000  0.200000  0.200000      2.000000
  0.400000  0.200000  0.200000      6.000000
 -0.400000  0.200000  0.200000      6.000000
 -0.200000  0.200000  0.200000      6.000000
  0.400000  0.400000  0.200000      6.000000
 -0.400000  0.400000  0.200000     12.000000
 -0.200000  0.400000  0.200000     12.000000
 -0.400000 -0.400000  0.200000      6.000000
  0.400000  0.400000  0.400000      2.000000
 -0.400000  0.400000  0.400000      6.000000

 Following cartesian coordinates:
            Coordinates               Weight
  0.000000  0.000000  0.000000      1.000000
  0.200000  0.000000  0.000000      6.000000
  0.400000  0.000000  0.000000      6.000000
  0.200000  0.200000  0.000000      6.000000
  0.400000  0.200000  0.000000     12.000000
 -0.400000  0.200000  0.000000     12.000000
 -0.200000  0.200000  0.000000      6.000000
  0.400000  0.400000  0.000000      6.000000
 -0.400000  0.400000  0.000000      6.000000
  0.200000  0.200000  0.200000      2.000000
  0.400000  0.200000  0.200000      6.000000
 -0.400000  0.200000  0.200000      6.000000
 -0.200000  0.200000  0.200000      6.000000
  0.400000  0.400000  0.200000      6.000000
 -0.400000  0.400000  0.200000     12.000000
 -0.200000  0.400000  0.200000     12.000000
 -0.400000 -0.400000  0.200000      6.000000
  0.400000  0.400000  0.400000      2.000000
 -0.400000  0.400000  0.400000      6.000000

 I would recommend the setting:
   dimension x,y,z NGX =    19 NGY =   19 NGZ =   19
 SYSTEM =  unknown system
 POSCAR =  CaTiO3

 Startparameter for this run:
   NWRITE =      2    write-flag & timer
   PREC   = normal    normal or accurate (medium, high low for compatibility)
   ISTART =      0    job   : 0-new  1-cont  2-samecut
   ICHARG =      2    charge: 1-file 2-atom 10-const
   ISPIN  =      1    spin polarized calculation?
   LNONCOLLINEAR =      F non collinear calculations
   LSORBIT =      F    spin-orbit coupling
   INIWAV =      1    electr: 0-lowe 1-rand  2-diag
   LASPH  =      F    aspherical Exc in radial PAW
   METAGGA=      F    non-selfconsistent MetaGGA calc.

 Electronic Relaxation 1
   ENCUT  =  400.0 eV  29.40 Ry    5.42 a.u.   6.33  6.33  6.33*2*pi/ulx,y,z
   ENINI  =  400.0     initial cutoff
   ENAUG  =  605.4 eV  augmentation charge cutoff
   NELM   =     60;   NELMIN=  2; NELMDL=  0     # of ELM steps
   EDIFF  = 0.1E-03   stopping-criterion for ELM
   LREAL  =      F    real-space projection
   NLSPLINE    = F    spline interpolate recip. space projectors
   LCOMPAT=      F    compatible to vasp.4.4
   GGA_COMPAT  = T    GGA compatible to vasp.4.4-vasp.4.6
   LMAXPAW     = -100 max onsite density
   LMAXMIX     =    2 max onsite mixed and CHGCAR
   VOSKOWN=      0    Vosko Wilk Nusair interpolation
   ROPT   =    0.00000   0.00000   0.00000
 Ionic relaxation
   EDIFFG = 0.1E-02   stopping-criterion for IOM
   NSW    =   1024    number of steps for IOM
   NBLOCK =      1;   KBLOCK =   1024    inner block; outer block
   IBRION =      2    ionic relax: 0-MD 1-quasi-New 2-CG
   NFREE  =      1    steps in history (QN), initial steepest desc. (CG)
   ISIF   =      2    stress and relaxation
   IWAVPR =     11    prediction:  0-non 1-charg 2-wave 3-comb
   ISYM   =      2    0-nonsym 1-usesym 2-fastsym
   LCORR  =      T    Harris-Foulkes like correction to forces

   POTIM  = 0.5000    time-step for ionic-motion
   TEIN   =    0.0    initial temperature
   TEBEG  =    0.0;   TEEND  =   0.0 temperature during run
   SMASS  =  -3.00    Nose mass-parameter (am)
   estimated Nose-frequenzy (Omega)   =  0.10E-29 period in steps =****** mass=  -0.344E-27a.u.
   SCALEE = 1.0000    scale energy and forces
   NPACO  =    256;   APACO  = 16.0  distance and # of slots for P.C.
   PSTRESS=    0.0 pullay stress

  Mass of Ions in am
   POMASS =  47.88 40.08 16.00
  Ionic Valenz
   ZVAL   =  10.00  8.00  6.00
  Atomic Wigner-Seitz radii
  virtual crystal weights
   VCA    =   1.00  1.00  1.00
   NELECT =      36.0000    total number of electrons
   NUPDOWN=      -1.0000    fix difference up-down

 DOS related values:
   EMIN   =  10.00;   EMAX   =-10.00  energy-range for DOS
   EFERMI =   0.00
   ISMEAR =     1;   SIGMA  =   0.20  broadening in eV -4-tet -1-fermi 0-gaus

 Electronic relaxation 2 (details)
   IALGO  =     38    algorithm
   LDIAG  =      T    sub-space diagonalisation (order eigenvalues)
   LSUBROT=      F    optimize rotation matrix (better conditioning)
   TURBO    =      0    0=normal 1=particle mesh
   IRESTART =      0    0=no restart 2=restart with 2 vectors
   NREBOOT  =      0    no. of reboots
   NMIN     =      0    reboot dimension
   EREF     =   0.00    reference energy to select bands
   IMIX   =      4    mixing-type and parameters
     AMIX     =   0.40;   BMIX     =  1.00
     AMIX_MAG =   1.60;   BMIX_MAG =  1.00
     AMIN     =   0.10
     WC   =   100.;   INIMIX=   1;  MIXPRE=   1;  MAXMIX= -45

 Intra band minimization:
   WEIMIN = 0.0010     energy-eigenvalue tresh-hold
   EBREAK =  0.11E-05  absolut break condition
   DEPER  =   0.30     relativ break condition

   TIME   =   0.40     timestep for ELM

  volume/ion in A,a.u.               =      11.70        78.97
  Fermi-wavevector in a.u.,A,eV,Ry     =   1.392401  2.631257 26.378723  1.938781
  Thomas-Fermi vector in A             =   2.516148

 Write flags
   LWAVE  =      T    write WAVECAR
   LCHARG =      T    write CHGCAR
   LVTOT  =      F    write LOCPOT, total local potential
   LVHAR  =      F    write LOCPOT, Hartree potential only
   LELF   =      F    write electronic localiz. function (ELF)
   LORBIT =      0    0 simple, 1 ext, 2 COOP (PROOUT)

 Dipole corrections
   LMONO  =      F    monopole corrections only (constant potential shift)
   LDIPOL =      F    correct potential (dipole corrections)
   IDIPOL =      0    1-x, 2-y, 3-z, 4-all directions
   EPSILON=  1.0000000 bulk dielectric constant

 Exchange correlation treatment:
   GGA     =    --    GGA type
   VOSKOWN=      0    Vosko Wilk Nusair interpolation
   LHFCALC =     F    Hartree Fock is set to
   LHFONE  =     F    Hartree Fock one center treatment
   AEXX    =    0.0000 exact exchange contribution

 Linear response parameters
   LEPSILON=     F    determine dielectric tensor
   LRPA    =     F    only Hartree local field effects (RPA)
   LNABLA  =     F    use nabla operator in PAW spheres
[...]
  atomic energy  EATOM  =      2952.05274943
  free energy    TOTEN  =       213.35989717 eV

  energy without entropy =      213.35732165  energy(sigma->0) =      213.35903866

[...]

 eigenvalue-minimisations  :  1496
 total energy-change (2. order) :-0.2528135E+03  (-0.2501836E+03)
 number of electron      36.0000000 magnetization
 augmentation part       36.0000000 magnetization

[...]

 Broyden mixing:
  rms(total) = 0.30922E+01    rms(broyden)= 0.30919E+01
  rms(prec ) = 0.53642E+01
  weight for this iteration     100.00

[...]

 eigenvalues of (default mixing * dielectric matrix)
  average eigenvalue GAMMA=   0.9858
  0.9858

[...]

 average (electrostatic) potential at core
  the test charge radii are     1.0397  1.2658  0.7215
  (the norm of the test charge is              1.0000)
       1 -53.1402       2 -45.6169       3 -70.0814       4 -70.0814       5 -70.0814

 E-fermi :   3.6999     XC(G=0): -11.0113     alpha+bet :-13.2781

 k-point     1 :       0.0000    0.0000    0.0000
  band No.  band energies     occupation
      1     -29.0301      2.00000
      2     -29.0297      2.00000
      3     -29.0297      2.00000
      4     -16.5873      2.00000
      5     -16.5859      2.00000
      6     -16.5859      2.00000
      7     -13.8672      2.00000
      8     -12.7701      2.00000
      9     -12.7701      2.00000
     10       0.6558      2.00000
     11       0.6558      2.00000
     12       0.6577      2.00000
     13       2.5769      2.00000
     14       2.5769      2.00000
     15       2.5838      2.00000
     16       3.2956      2.01491
     17       3.2956      2.01491
     18       3.2966      2.01515
     19       5.5761     -0.00000
     20       5.5803     -0.00000
     21       5.5803     -0.00000
     22       8.0559     -0.00000

[...]

 soft charge-density along one line, spin component           1
         0         1         2         3         4         5         6         7         8         9
 total charge-density along one line

------------------------ aborting loop because EDIFF is reached ----------------------------------------

  FORCE on cell =-STRESS in cart. coord.  units (eV):
  Direction    XX          YY          ZZ          XY          YZ          ZX
  Alpha Z   166.69950   166.69950   166.69950
  Ewald    -759.08459  -759.08459  -759.08459     0.25857     0.25857     0.25857
  Hartree   227.87938   227.87938   227.87938     0.10615     0.10615     0.10615
  E(xc)    -170.16163  -170.16163  -170.16163     0.00014     0.00014     0.00014
  Local     -32.86423   -32.86423   -32.86423    -0.35935    -0.35935    -0.35935
  n-local   -90.45362   -88.71647   -84.89920     0.03553    -0.10429     0.08413
  augment   133.02223   133.02223   133.02223    -0.00000    -0.00000    -0.00000
  Kinetic   513.78955   521.09127   527.97563     0.50740    -1.56954     1.09363
  Fock        0.00000     0.00000     0.00000     0.00000     0.00000     0.00000
  Total      -1.58030    -1.58030    -1.58030     0.02113     0.02113     0.02113
  in kB     -43.27294   -43.27294   -43.27294     0.57856     0.57856     0.57856

 VOLUME and BASIS-vectors are now :
  energy-cutoff  :      400.00
  volume of cell :       58.51
      direct lattice vectors                 reciprocal lattice vectors
     3.882200000  0.000000000  0.000000000     0.257585905  0.000000000  0.000000000
     0.000000000  3.882200000  0.000000000     0.000000000  0.257585905  0.000000000
     0.000000000  0.000000000  3.882200000     0.000000000  0.000000000  0.257585905

[...]

 FORCES acting on ions
    electron-ion (+dipol)            ewald-force                    non-local-force                 convergence-correction
   -.306E+01 -.306E+01 -.306E+01   0.321E+01 0.321E+01 0.321E+01   -.480E-01 -.480E-01 -.480E-01   -.169E-02 -.169E-02 -.169E-02
   0.905E+01 0.905E+01 0.905E+01   -.897E+01 -.897E+01 -.897E+01   -.114E+00 -.114E+00 -.114E+00   0.220E-02 0.220E-02 0.220E-02
   0.193E+01 -.356E+01 -.356E+01   -.206E+01 0.391E+01 0.391E+01   0.167E+00 -.405E+00 -.405E+00   0.497E-03 0.224E-03 0.224E-03
   -.356E+01 0.193E+01 -.356E+01   0.391E+01 -.206E+01 0.391E+01   -.405E+00 0.167E+00 -.405E+00   0.224E-03 0.497E-03 0.224E-03
   -.356E+01 -.356E+01 0.193E+01   0.391E+01 0.391E+01 -.206E+01   -.405E+00 -.405E+00 0.167E+00   0.224E-03 0.224E-03 0.497E-03
   0.804E+00 0.804E+00 0.804E+00   0.000E+00 0.444E-15 0.178E-14   -.806E+00 -.806E+00 -.806E+00   0.146E-02 0.146E-02 0.146E-02

 POSITION                                       TOTAL-FORCE (eV/Angst)
      0.00000      0.00000      0.00000         0.093148      0.093148      0.093148
      1.97992      1.97992      1.97992        -0.032586     -0.032586     -0.032586
      1.94110      0.00000      0.00000         0.038573     -0.049567     -0.049567
      0.00000      1.94110      0.00000        -0.049567      0.038573     -0.049567
      0.00000      0.00000      1.94110        -0.049567     -0.049567      0.038573
    total drift:                               -0.000147     -0.000147     -0.000142

  FREE ENERGIE OF THE ION-ELECTRON SYSTEM (eV)
  free  energy   TOTEN  =       -40.06429432 eV

  energy  without entropy=      -40.07128104  energy(sigma->0) =      -40.06662323

 stress matrix after NEB project (eV)
     -1.58030      0.02113      0.02113
      0.02113     -1.58030      0.02113
      0.02113      0.02113     -1.58030
  FORCES: max atom, RMS     0.161337    0.076440
  FORCE total and by dimension    0.170925    0.093148
  Stress total and by dimension    2.737649    1.580300

[...]

 d Force = 0.1296646E-02[ 0.118E-02, 0.141E-02]  d Energy = 0.1294803E-02 0.184E-05
 d Force = 0.7479167E-01[ 0.641E-01, 0.855E-01]  d Ewald  = 0.7479060E-01 0.107E-05

 stress matrix after NEB project (eV)
     -1.49272      0.01745      0.01745
      0.01745     -1.49272      0.01745
      0.01745      0.01745     -1.49272
  FORCES: max atom, RMS     0.139621    0.064447
  FORCE total and by dimension    0.144108    0.080610
  Stress total and by dimension    2.585815    1.492717
 Steepest descent step on ions:
 trial-energy change:   -0.001295  1 .order   -0.001297   -0.001409   -0.001184
  (g-gl).g = 0.141E-02      g.g   = 0.141E-02  gl.gl    = 0.000E+00
 g(Force)  = 0.141E-02   g(Stress)= 0.000E+00 ortho     = 0.000E+00
 gamma     =   0.00000
 trial     =   1.00000
 opt step  =   4.00000  (harmonic =   6.24896) maximal distance =0.01797483
 next E    =   -40.068698   (d E  =  -0.00440)

[...]

 d Force = 0.2492366E-02[ 0.143E-02, 0.355E-02]  d Energy = 0.2526122E-02-0.338E-04
 d Force = 0.9570002E-01[-0.765E-03, 0.192E+00]  d Ewald  = 0.9564913E-01 0.509E-04

[...]

 d Force = 0.3313637E-03[ 0.337E-03, 0.325E-03]  d Energy = 0.3437457E-03-0.124E-04
 d Force =-0.4286217E-01[-0.446E-01,-0.411E-01]  d Ewald  =-0.4286239E-01 0.221E-06

 stress matrix after NEB project (eV)
     -1.47247      0.01078      0.01078
      0.01078     -1.47247      0.01078
      0.01078      0.01078     -1.47247
  FORCES: max atom, RMS     0.070863    0.034448
  FORCE total and by dimension    0.077028    0.040913
  Stress total and by dimension    2.550531    1.472471
 Conjugate gradient step on ions:
 trial-energy change:   -0.000344  1 .order   -0.000331   -0.000325   -0.000337
  (g-gl).g =-0.205E-03      g.g   = 0.273E-03  gl.gl    = 0.141E-02
 g(Force)  = 0.273E-03   g(Stress)= 0.000E+00 ortho     = 0.478E-03
 gamma     =  -0.14539
 trial     =   1.60000
 opt step  =   6.40000  (harmonic =   6.40000) maximal distance =0.00838821
 next E    =   -40.069513   (d E  =  -0.00140)

[...]

 d Force = 0.1048209E-02[-0.142E-02, 0.351E-02]  d Energy = 0.1449442E-02-0.401E-03
 d Force =-0.1168632E+01[-0.142E+01,-0.918E+00]  d Ewald  =-0.1169684E+01 0.105E-02

[...]

 d Force = 0.1262067E-02[ 0.116E-02, 0.136E-02]  d Energy = 0.1270191E-02-0.812E-05
 d Force =-0.1062213E-02[-0.708E-02, 0.495E-02]  d Ewald  =-0.1060921E-02-0.129E-05

 stress matrix after NEB project (eV)
     -1.20122      0.03311      0.03311
      0.03311     -1.20122      0.03311
      0.03311      0.03311     -1.20122
  FORCES: max atom, RMS     0.150432    0.085827
  FORCE total and by dimension    0.191914    0.086852
  Stress total and by dimension    2.082157    1.201222
 Steepest descent step on ions:
 trial-energy change:   -0.001270  1 .order   -0.001262   -0.001362   -0.001162
  (g-gl).g = 0.274E-02      g.g   = 0.242E-02  gl.gl    = 0.273E-03
 g(Force)  = 0.242E-02   g(Stress)= 0.000E+00 ortho     =-0.739E-04
 gamma     =   0.00000
 trial     =   0.56180
 opt step  =   2.24722  (harmonic =   3.83716) maximal distance =0.01028663
 next E    =   -40.077656   (d E  =  -0.00465)

[...]

 stress matrix after NEB project (eV)
     -1.19193      0.06291      0.06291
      0.06291     -1.19193      0.06291
      0.06291      0.06291     -1.19193
  FORCES: max atom, RMS     0.087116    0.040170
  FORCE total and by dimension    0.089824    0.050296
  Stress total and by dimension    2.070221    1.191926
 Conjugate gradient step on ions:
 trial-energy change:   -0.000522  1 .order   -0.000521   -0.000532   -0.000509
  (g-gl).g =-0.439E-04      g.g   = 0.423E-03  gl.gl    = 0.541E-03
 g(Force)  = 0.423E-03   g(Stress)= 0.000E+00 ortho     = 0.381E-03
 gamma     =  -0.08124
 trial     =   1.35750
 opt step  =   5.42999  (harmonic =  30.87694) maximal distance =0.01294887
 next E    =   -40.084195   (d E  =  -0.00605)

[...]

 stress matrix after NEB project (eV)
     -0.99948      0.11942      0.11942
      0.11942     -0.99948      0.11942
      0.11942      0.11942     -0.99948
  FORCES: max atom, RMS     0.056984    0.025705
  FORCE total and by dimension    0.057479    0.032900
  Stress total and by dimension    1.755684    0.999477
 Steepest descent step on ions:
 trial-energy change:   -0.000859  1 .order   -0.000883   -0.001381   -0.000384
  (g-gl).g = 0.241E-03      g.g   = 0.466E-03  gl.gl    = 0.423E-03
 g(Force)  = 0.466E-03   g(Stress)= 0.000E+00 ortho     = 0.208E-03
 gamma     =   0.00000
 trial     =   2.96234
 opt step  =   4.10270  (harmonic =   4.10270) maximal distance =0.01049851
 next E    =   -40.083202   (d E  =  -0.00096)

 FEWALD executed in parallel

[...]

 eigenvalue-minimisations  :  1122
 total energy-change (2. order) : 0.5072682E-03  (-0.1794715E-01)
 number of electron      36.0000058 magnetization
 augmentation part       11.1230422 magnetization

[...]

 Broyden mixing:
  rms(total) = 0.68100E-02    rms(broyden)= 0.68090E-02
  rms(prec ) = 0.87017E-02
  weight for this iteration     100.00

 eigenvalues of (default mixing * dielectric matrix)
  average eigenvalue GAMMA=   1.1945
  1.1945

[...]

----------------------------------------- Iteration   16(   3)  ---------------------------------------

 eigenvalue-minimisations  :  1320
 total energy-change (2. order) :-0.4243707E-05  (-0.2302310E-04)
 number of electron      36.0000058 magnetization
 augmentation part       11.1219547 magnetization

 Free energy of the ion-electron system (eV)
  alpha Z        PSCENC =       166.69949767
  Ewald energy   TEWEN  =     -2272.77024334
  -Hartree energ DENC   =      -688.48959051
  -exchange      EXHF   =         0.00000000
  -V(xc)+E(xc)   XCENC  =       137.73529461
  PAW double counting   =      3558.04672786    -3564.60638493
  entropy T*S    EENTRO =         0.00675551
  eigenvalues    EBANDS =      -328.75797941
  atomic energy  EATOM  =      2952.05274943
  free energy    TOTEN  =       -40.08317311 eV

  energy without entropy =      -40.08992862  energy(sigma->0) =      -40.08542495

 average (electrostatic) potential at core
  the test charge radii are     1.0397  1.2658  0.7215
  (the norm of the test charge is              1.0000)
       1 -53.0328       2 -45.5603       3 -70.1188       4 -70.1188       5 -70.1188

 E-fermi :   3.6390     XC(G=0): -10.9977     alpha+bet :-13.2781

[...]

 k-point    19 :      -0.4000    0.4000    0.4000
  band No.  band energies     occupation
      1     -29.0213      2.00000
      2     -29.0207      2.00000
      3     -29.0153      2.00000
      4     -16.6382      2.00000
      5     -16.6148      2.00000
      6     -16.6136      2.00000
      7     -12.5144      2.00000
      8     -12.4218      2.00000
      9     -12.4119      2.00000
     10      -0.7727      2.00000
     11      -0.5885      2.00000
     12      -0.5103      2.00000
     13      -0.4626      2.00000
     14      -0.2696      2.00000
     15      -0.1760      2.00000
     16       3.3968      2.07085
     17       3.4146      2.06720
     18       3.5314      1.78030
     19       7.9512     -0.00000
     20       8.0369     -0.00000
     21       8.0591     -0.00000
     22       9.5590      0.00000

 soft charge-density along one line, spin component           1
         0         1         2         3         4         5         6         7         8         9
 total charge-density along one line

------------------------ aborting loop because EDIFF is reached ----------------------------------------

  FORCE on cell =-STRESS in cart. coord.  units (eV):
  Direction    XX          YY          ZZ          XY          YZ          ZX
  Alpha Z   166.69950   166.69950   166.69950
  Ewald    -757.59082  -757.59082  -757.59082    -3.14137    -3.14137    -3.14137
  Hartree   229.50090   229.50090   229.50090    -1.48206    -1.48206    -1.48206
  E(xc)    -170.28963  -170.28963  -170.28963    -0.00558    -0.00558    -0.00558
  Local     -35.53580   -35.53580   -35.53580     4.61423     4.61423     4.61423
  n-local   -90.25831   -88.77463   -85.38479     0.01039    -0.15766     0.03893
  augment   132.90945   132.90945   132.90945    -0.01671    -0.01671    -0.01671
  Kinetic   514.64819   521.54727   528.25054     0.86050    -1.48307     1.18312
  Fock        0.00000     0.00000     0.00000     0.00000     0.00000     0.00000
  Total      -0.96364    -0.96364    -0.96364     0.11926     0.11926     0.11926
  in kB     -26.38699   -26.38699   -26.38699     3.26554     3.26554     3.26554

 VOLUME and BASIS-vectors are now :
  energy-cutoff  :      400.00
  volume of cell :       58.51
      direct lattice vectors                 reciprocal lattice vectors
     3.882200000  0.000000000  0.000000000     0.257585905  0.000000000  0.000000000
     0.000000000  3.882200000  0.000000000     0.000000000  0.257585905  0.000000000
     0.000000000  0.000000000  3.882200000     0.000000000  0.000000000  0.257585905

  length of vectors
     3.882200000  3.882200000  3.882200000     0.257585905  0.257585905  0.257585905

 FORCES acting on ions
    electron-ion (+dipol)            ewald-force                    non-local-force                 convergence-correction
   0.891E+01 0.891E+01 0.891E+01   -.898E+01 -.898E+01 -.898E+01   0.190E-01 0.190E-01 0.190E-01   0.368E-01 0.368E-01 0.368E-01
   0.226E+02 0.226E+02 0.226E+02   -.222E+02 -.222E+02 -.222E+02   -.381E+00 -.381E+00 -.381E+00   0.621E-02 0.621E-02 0.621E-02
   -.263E+02 -.578E+00 -.578E+00   0.298E+02 0.684E+00 0.684E+00   -.313E+01 -.279E+00 -.279E+00   0.190E-01 -.394E-02 -.394E-02
   -.578E+00 -.263E+02 -.578E+00   0.684E+00 0.298E+02 0.684E+00   -.279E+00 -.313E+01 -.279E+00   -.394E-02 0.190E-01 -.394E-02
   -.578E+00 -.578E+00 -.263E+02   0.684E+00 0.684E+00 0.298E+02   -.279E+00 -.279E+00 -.313E+01   -.394E-02 -.394E-02 0.190E-01
   0.399E+01 0.399E+01 0.399E+01   0.300E-14 -.355E-14 0.711E-14   -.405E+01 -.405E+01 -.405E+01   0.541E-01 0.541E-01 0.541E-01

 POSITION                                       TOTAL-FORCE (eV/Angst)
      0.07204      0.07204      0.07204        -0.012532     -0.012532     -0.012532
      2.06225      2.06225      2.06225         0.037609      0.037609      0.037609
      1.94110      0.00000      0.00000         0.327525     -0.176301     -0.176301
      0.00000      1.94110      0.00000        -0.176301      0.327525     -0.176301
      0.00000      0.00000      1.94110        -0.176301     -0.176301      0.327525
    total drift:                               -0.002661     -0.002661     -0.002668

  FREE ENERGIE OF THE ION-ELECTRON SYSTEM (eV)
  free  energy   TOTEN  =       -40.08317311 eV

  energy  without entropy=      -40.08992862  energy(sigma->0) =      -40.08542495

 d Force = 0.8178825E-04[ 0.158E-04, 0.148E-03]  d Energy = 0.6839225E-04 0.134E-04
 d Force =-0.1496344E+00[-0.153E+00,-0.147E+00]  d Ewald  =-0.1496368E+00 0.232E-05

 stress matrix after NEB project (eV)
     -0.96364      0.11926      0.11926
      0.11926     -0.96364      0.11926
      0.11926      0.11926     -0.96364
  FORCES: max atom, RMS     0.065141    0.030707
  FORCE total and by dimension    0.068662    0.037609
  Stress total and by dimension    1.694436    0.963636

 reached required accuracy - stopping structural energy minimisation
 writing wavefunctions