 vasp.5.3.5 31Mar14 (build Dec 17 2015 22:09:37) complex

 executed on             LinuxIFC date 2017.03.19  05:22:31

 INCAR:
 POTCAR:    PAW_PBE Ti_pv 07Sep2000
 POTCAR:    PAW_PBE Ca_pv 06Sep2000
 POTCAR:    PAW_PBE O 08Apr2002

 POTCAR:    PAW_PBE Ti_pv 07Sep2000
   VRHFIN =Ti: d3 s1

   TITEL  = PAW_PBE Ti_pv 07Sep2000
   POMASS =   47.880; ZVAL   =   10.000    mass and valenz
   ENMAX  =  222.335; ENMIN  =  166.751 eV

 POTCAR:    PAW_PBE Ca_pv 06Sep2000
   VRHFIN =Ca: p6s2d0.01

   TITEL  = PAW_PBE Ca_pv 06Sep2000
   POMASS =   40.078; ZVAL   =    8.000    mass and valenz
   ENMAX  =  119.559; ENMIN  =   89.670 eV

 POTCAR:    PAW_PBE O 08Apr2002
   VRHFIN =O: s2p4

   TITEL  = PAW_PBE O 08Apr2002
   POMASS =   16.000; ZVAL   =    6.000    mass and valenz
   ENMAX  =  400.000; ENMIN  =  300.000 eV

  PAW_PBE Ti_pv 07Sep2000               :
  PAW_PBE Ca_pv 06Sep2000               :
  PAW_PBE O 08Apr2002                   :

 POSCAR: CaTiO3
  positions in direct lattice
  velocities in cartesian coordinates
 exchange correlation table for  LEXCH =        8
   RHO(1)=    0.500       N(1)  =     2000
   RHO(2)=  100.500       N(2)  =     4000

 VTST: version 3.1, (03/28/14)

 CHAIN: initializing optimizer

 OPT: Using VASP Conjugate-Gradient optimizer
 CHAIN: Read ICHAIN            0

 POSCAR: CaTiO3
  positions in direct lattice
  velocities in cartesian coordinates

 ion  position               nearest neighbor table
   1  0.010  0.010  0.010-   3 1.90   4 1.90   5 1.90   5 1.98   4 1.98   3 1.98   2 3.29   2 3.34
                             2 3.34   2 3.34   2 3.39   2 3.39   2 3.39   2 3.43
   2  0.500  0.500  0.500-   3 2.75   4 2.75   5 2.75   3 2.75   4 2.75   3 2.75   5 2.75   3 2.75
                             4 2.75   5 2.75   4 2.75   5 2.75   1 3.29   1 3.34   1 3.34   1 3.34
   3  0.500  0.000  0.000-   1 1.90   1 1.98   2 2.75   2 2.75   2 2.75   2 2.75
   4  0.000  0.500  0.000-   1 1.90   1 1.98   2 2.75   2 2.75   2 2.75   2 2.75
   5  0.000  0.000  0.500-   1 1.90   1 1.98   2 2.75   2 2.75   2 2.75   2 2.75

  LATTYP: Found a simple cubic cell.
 ALAT       =     3.8822000000

  Lattice vectors:

 A1 = (   3.8822000000,   0.0000000000,   0.0000000000)
 A2 = (   0.0000000000,   3.8822000000,   0.0000000000)
 A3 = (   0.0000000000,   0.0000000000,   3.8822000000)

Analysis of symmetry for initial positions (statically):
 Subroutine PRICEL returns:
 Original cell was already a primitive cell.

 Routine SETGRP: Setting up the symmetry group for a
 simple cubic supercell.

 Subroutine GETGRP returns: Found  6 space group operations
 (whereof  6 operations were pure point group operations)
 out of a pool of 48 trial point group operations.

The static configuration has the point symmetry C_3v.

Analysis of symmetry for dynamics (positions and initial velocities):
 Subroutine PRICEL returns:
 Original cell was already a primitive cell.

[...]

The dynamic configuration has the point symmetry C_3v.

Analysis of constrained symmetry for selective dynamics:
 Subroutine PRICEL returns:
 Original cell was already a primitive cell.

 Routine SETGRP: Setting up the symmetry group for a
 simple cubic supercell.

 Subroutine GETGRP returns: Found  6 space group operations
 (whereof  6 operations were pure point group operations)
 out of a pool of 48 trial point group operations.

The constrained configuration has the point symmetry C_3v.

 KPOINTS: k-points

Automatic generation of k-mesh.
Space group operators:
 irot       det(A)        alpha          n_x          n_y          n_z        tau_x        tau_y        tau_z
    1     1.000000     0.000000     1.000000     0.000000     0.000000     0.000000     0.000000     0.000000
    2     1.000000   120.000000    -0.577350    -0.577350    -0.577350     0.000000     0.000000     0.000000
    3     1.000000   120.000000     0.577350     0.577350     0.577350     0.000000     0.000000     0.000000
    4    -1.000000   180.000000     0.000000    -0.707107     0.707107     0.000000     0.000000     0.000000
    5    -1.000000   180.000000     0.707107    -0.707107     0.000000     0.000000     0.000000     0.000000
    6    -1.000000   180.000000     0.707107     0.000000    -0.707107     0.000000     0.000000     0.000000

 Subroutine IBZKPT returns following result:

 Found     19 irreducible k-points:

 Following reciprocal coordinates:
            Coordinates               Weight
  0.000000  0.000000  0.000000      1.000000
  0.200000  0.000000  0.000000      6.000000
  0.400000  0.000000  0.000000      6.000000
  0.200000  0.200000  0.000000      6.000000
  0.400000  0.200000  0.000000     12.000000
 -0.400000  0.200000  0.000000     12.000000
 -0.200000  0.200000  0.000000      6.000000
  0.400000  0.400000  0.000000      6.000000
 -0.400000  0.400000  0.000000      6.000000
  0.200000  0.200000  0.200000      2.000000
  0.400000  0.200000  0.200000      6.000000
 -0.400000  0.200000  0.200000      6.000000
 -0.200000  0.200000  0.200000      6.000000
  0.400000  0.400000  0.200000      6.000000
 -0.400000  0.400000  0.200000     12.000000
 -0.200000  0.400000  0.200000     12.000000
 -0.400000 -0.400000  0.200000      6.000000
  0.400000  0.400000  0.400000      2.000000
 -0.400000  0.400000  0.400000      6.000000

 Following cartesian coordinates:
            Coordinates               Weight
  0.000000  0.000000  0.000000      1.000000
  0.200000  0.000000  0.000000      6.000000
  0.400000  0.000000  0.000000      6.000000
  0.200000  0.200000  0.000000      6.000000
  0.400000  0.200000  0.000000     12.000000
 -0.400000  0.200000  0.000000     12.000000
 -0.200000  0.200000  0.000000      6.000000
  0.400000  0.400000  0.000000      6.000000
 -0.400000  0.400000  0.000000      6.000000
  0.200000  0.200000  0.200000      2.000000
  0.400000  0.200000  0.200000      6.000000
 -0.400000  0.200000  0.200000      6.000000
 -0.200000  0.200000  0.200000      6.000000
  0.400000  0.400000  0.200000      6.000000
 -0.400000  0.400000  0.200000     12.000000
 -0.200000  0.400000  0.200000     12.000000
 -0.400000 -0.400000  0.200000      6.000000
  0.400000  0.400000  0.400000      2.000000
 -0.400000  0.400000  0.400000      6.000000

 I would recommend the setting:
   dimension x,y,z NGX =    19 NGY =   19 NGZ =   19
 SYSTEM =  unknown system
 POSCAR =  CaTiO3

 Startparameter for this run:
   NWRITE =      2    write-flag & timer
   PREC   = normal    normal or accurate (medium, high low for compatibility)
   ISTART =      0    job   : 0-new  1-cont  2-samecut
   ICHARG =      2    charge: 1-file 2-atom 10-const
   ISPIN  =      1    spin polarized calculation?
   LNONCOLLINEAR =      F non collinear calculations
   LSORBIT =      F    spin-orbit coupling
   INIWAV =      1    electr: 0-lowe 1-rand  2-diag
   LASPH  =      F    aspherical Exc in radial PAW
   METAGGA=      F    non-selfconsistent MetaGGA calc.

 Electronic Relaxation 1
   ENCUT  =  400.0 eV  29.40 Ry    5.42 a.u.   6.33  6.33  6.33*2*pi/ulx,y,z
   ENINI  =  400.0     initial cutoff
   ENAUG  =  605.4 eV  augmentation charge cutoff
   NELM   =     60;   NELMIN=  2; NELMDL= -5     # of ELM steps
   EDIFF  = 0.1E-03   stopping-criterion for ELM
   LREAL  =      F    real-space projection
   NLSPLINE    = F    spline interpolate recip. space projectors
   LCOMPAT=      F    compatible to vasp.4.4
   GGA_COMPAT  = T    GGA compatible to vasp.4.4-vasp.4.6
   LMAXPAW     = -100 max onsite density
   LMAXMIX     =    2 max onsite mixed and CHGCAR
   VOSKOWN=      0    Vosko Wilk Nusair interpolation
   ROPT   =    0.00000   0.00000   0.00000
 Ionic relaxation
   EDIFFG = 0.1E-02   stopping-criterion for IOM
   NSW    =   1024    number of steps for IOM
   NBLOCK =      1;   KBLOCK =   1024    inner block; outer block
   IBRION =      2    ionic relax: 0-MD 1-quasi-New 2-CG
   NFREE  =      1    steps in history (QN), initial steepest desc. (CG)
   ISIF   =      2    stress and relaxation
   IWAVPR =     11    prediction:  0-non 1-charg 2-wave 3-comb
   ISYM   =      2    0-nonsym 1-usesym 2-fastsym
   LCORR  =      T    Harris-Foulkes like correction to forces

   POTIM  = 0.5000    time-step for ionic-motion
   TEIN   =    0.0    initial temperature
   TEBEG  =    0.0;   TEEND  =   0.0 temperature during run
   SMASS  =  -3.00    Nose mass-parameter (am)
   estimated Nose-frequenzy (Omega)   =  0.10E-29 period in steps =****** mass=  -0.344E-27a.u.
   SCALEE = 1.0000    scale energy and forces
   NPACO  =    256;   APACO  = 16.0  distance and # of slots for P.C.
   PSTRESS=    0.0 pullay stress

  Mass of Ions in am
   POMASS =  47.88 40.08 16.00
  Ionic Valenz
   ZVAL   =  10.00  8.00  6.00
  Atomic Wigner-Seitz radii
  virtual crystal weights
   VCA    =   1.00  1.00  1.00
   NELECT =      36.0000    total number of electrons
   NUPDOWN=      -1.0000    fix difference up-down

 DOS related values:
   EMIN   =  10.00;   EMAX   =-10.00  energy-range for DOS
   EFERMI =   0.00
   ISMEAR =     1;   SIGMA  =   0.20  broadening in eV -4-tet -1-fermi 0-gaus

 Electronic relaxation 2 (details)
   IALGO  =     38    algorithm
   LDIAG  =      T    sub-space diagonalisation (order eigenvalues)
   LSUBROT=      F    optimize rotation matrix (better conditioning)
   TURBO    =      0    0=normal 1=particle mesh
   IRESTART =      0    0=no restart 2=restart with 2 vectors
   NREBOOT  =      0    no. of reboots
   NMIN     =      0    reboot dimension
   EREF     =   0.00    reference energy to select bands
   IMIX   =      4    mixing-type and parameters
     AMIX     =   0.40;   BMIX     =  1.00
     AMIX_MAG =   1.60;   BMIX_MAG =  1.00
     AMIN     =   0.10
     WC   =   100.;   INIMIX=   1;  MIXPRE=   1;  MAXMIX= -45

 Intra band minimization:
   WEIMIN = 0.0010     energy-eigenvalue tresh-hold
   EBREAK =  0.11E-05  absolut break condition
   DEPER  =   0.30     relativ break condition

   TIME   =   0.40     timestep for ELM

  volume/ion in A,a.u.               =      11.70        78.97
  Fermi-wavevector in a.u.,A,eV,Ry     =   1.392401  2.631257 26.378723  1.938781
  Thomas-Fermi vector in A             =   2.516148

 Write flags
   LWAVE  =      T    write WAVECAR
   LCHARG =      T    write CHGCAR
   LVTOT  =      F    write LOCPOT, total local potential
   LVHAR  =      F    write LOCPOT, Hartree potential only
   LELF   =      F    write electronic localiz. function (ELF)
   LORBIT =      0    0 simple, 1 ext, 2 COOP (PROOUT)

 Dipole corrections
   LMONO  =      F    monopole corrections only (constant potential shift)
   LDIPOL =      F    correct potential (dipole corrections)
   IDIPOL =      0    1-x, 2-y, 3-z, 4-all directions
   EPSILON=  1.0000000 bulk dielectric constant

 Exchange correlation treatment:
   GGA     =    --    GGA type
   VOSKOWN=      0    Vosko Wilk Nusair interpolation
   LHFCALC =     F    Hartree Fock is set to
   LHFONE  =     F    Hartree Fock one center treatment
   AEXX    =    0.0000 exact exchange contribution

 Linear response parameters
   LEPSILON=     F    determine dielectric tensor
   LRPA    =     F    only Hartree local field effects (RPA)
   LNABLA  =     F    use nabla operator in PAW spheres
[...]
  -0.40000000  0.40000000  0.40000000       0.048

 position of ions in fractional coordinates (direct lattice)
   0.01000000  0.01000000  0.01000000
   0.50000000  0.50000000  0.50000000
   0.50000000  0.00000000  0.00000000
   0.00000000  0.50000000  0.00000000
   0.00000000  0.00000000  0.50000000

 position of ions in cartesian coordinates  (Angst):
   0.03882200  0.03882200  0.03882200
   1.94110000  1.94110000  1.94110000
   1.94110000  0.00000000  0.00000000
   0.00000000  1.94110000  0.00000000
   0.00000000  0.00000000  1.94110000

 k-point  1 :   0.0000 0.0000 0.0000  plane waves:    1045
 k-point  2 :   0.2000 0.0000 0.0000  plane waves:    1069
 k-point  3 :   0.4000 0.0000 0.0000  plane waves:    1064
 k-point  4 :   0.2000 0.2000 0.0000  plane waves:    1073
 k-point  5 :   0.4000 0.2000 0.0000  plane waves:    1072
 k-point  6 :  -0.4000 0.2000 0.0000  plane waves:    1072
 k-point  7 :  -0.2000 0.2000 0.0000  plane waves:    1073
 k-point  8 :   0.4000 0.4000 0.0000  plane waves:    1063
 k-point  9 :  -0.4000 0.4000 0.0000  plane waves:    1063
 k-point 10 :   0.2000 0.2000 0.2000  plane waves:    1066
 k-point 11 :   0.4000 0.2000 0.2000  plane waves:    1068
 k-point 12 :  -0.4000 0.2000 0.2000  plane waves:    1068
 k-point 13 :  -0.2000 0.2000 0.2000  plane waves:    1066
 k-point 14 :   0.4000 0.4000 0.2000  plane waves:    1054
 k-point 15 :  -0.4000 0.4000 0.2000  plane waves:    1054
 k-point 16 :  -0.2000 0.4000 0.2000  plane waves:    1068
 k-point 17 :  -0.4000-0.4000 0.2000  plane waves:    1054
 k-point 18 :   0.4000 0.4000 0.4000  plane waves:    1058
 k-point 19 :  -0.4000 0.4000 0.4000  plane waves:    1058

 maximum and minimum number of plane-waves per node :      1073     1045

 maximum number of plane-waves:      1073
 maximum index in each direction:
   IXMAX=    6   IYMAX=    6   IZMAX=    6
   IXMIN=   -6   IYMIN=   -6   IZMIN=   -6

 WARNING: aliasing errors must be expected set NGX to  26 to avoid them
 WARNING: aliasing errors must be expected set NGY to  26 to avoid them
 WARNING: aliasing errors must be expected set NGZ to  26 to avoid them
 aliasing errors are usually negligible using standard VASP settings
 and one can safely disregard these warnings

 serial   3D FFT for wavefunctions
 parallel 3D FFT for charge:
    minimum data exchange during FFTs selected (reduces bandwidth)

 Broyden mixing: mesh for mixing (old mesh)
   NGX = 13   NGY = 13   NGZ = 13
  (NGX  = 40   NGY  = 40   NGZ  = 40)
  gives a total of   2197 points

 initial charge density was supplied:
 charge density of overlapping atoms calculated
 number of electron      36.0000000 magnetization
 keeping initial charge density in first step

 Maximum index for augmentation-charges          517 (set IRDMAX)

 First call to EWALD:  gamma=   0.457
 Maximum number of real-space cells 3x 3x 3
 Maximum number of reciprocal cells 3x 3x 3

 FEWALD executed in parallel

----------------------------------------- Iteration    1(   1)  ---------------------------------------

 eigenvalue-minimisations  :   836
 total energy-change (2. order) : 0.2116639E+03  (-0.1653977E+04)
 number of electron      36.0000000 magnetization
 augmentation part       36.0000000 magnetization

 Free energy of the ion-electron system (eV)
  alpha Z        PSCENC =       166.69949767
  Ewald energy   TEWEN  =     -2277.16935736
  -Hartree energ DENC   =      -672.99098564
  -exchange      EXHF   =         0.00000000
  -V(xc)+E(xc)   XCENC  =       135.79759475
  PAW double counting   =      2297.08385515    -2300.16057493
  entropy T*S    EENTRO =         0.00801141
  eigenvalues    EBANDS =       -89.65684248
  atomic energy  EATOM  =      2952.05274943
  free energy    TOTEN  =       211.66394801 eV

  energy without entropy =      211.65593660  energy(sigma->0) =      211.66127754

[...]

 eigenvalue-minimisations  :  1562
 total energy-change (2. order) :-0.2547477E+03  (-0.2528239E+03)
 number of electron      36.0000000 magnetization
 augmentation part       36.0000000 magnetization

[...]

 Broyden mixing:
  rms(total) = 0.31167E+01    rms(broyden)= 0.31164E+01
  rms(prec ) = 0.53736E+01
  weight for this iteration     100.00

[...]

 eigenvalues of (default mixing * dielectric matrix)
  average eigenvalue GAMMA=   0.9875
  0.9875

[...]

 average (electrostatic) potential at core
  the test charge radii are     1.0397  1.2658  0.7215
  (the norm of the test charge is              1.0000)
       1 -53.0962       2 -45.6314       3 -70.0864       4 -70.0864       5 -70.0864

 E-fermi :   3.6948     XC(G=0): -11.0113     alpha+bet :-13.2781

 k-point     1 :       0.0000    0.0000    0.0000
  band No.  band energies     occupation
      1     -28.9969      2.00000
      2     -28.9969      2.00000
      3     -28.9954      2.00000
      4     -16.5994      2.00000
      5     -16.5985      2.00000
      6     -16.5985      2.00000
      7     -13.8657      2.00000
      8     -12.7661      2.00000
      9     -12.7661      2.00000
     10       0.6619      2.00000
     11       0.6619      2.00000
     12       0.6644      2.00000
     13       2.5489      2.00000
     14       2.5489      2.00000
     15       2.5791      2.00000
     16       3.2201      2.00400
     17       3.2533      2.00773
     18       3.2533      2.00773
     19       5.6602     -0.00000
     20       5.6602     -0.00000
     21       5.6927     -0.00000
     22       8.1189     -0.00000

[...]

 soft charge-density along one line, spin component           1
         0         1         2         3         4         5         6         7         8         9
 total charge-density along one line

------------------------ aborting loop because EDIFF is reached ----------------------------------------

  FORCE on cell =-STRESS in cart. coord.  units (eV):
  Direction    XX          YY          ZZ          XY          YZ          ZX
  Alpha Z   166.69950   166.69950   166.69950
  Ewald    -759.05717  -759.05717  -759.05717    -1.04812    -1.04812    -1.04812
  Hartree   227.96375   227.96375   227.96375    -0.45769    -0.45769    -0.45769
  E(xc)    -170.17950  -170.17950  -170.17950    -0.00193    -0.00193    -0.00193
  Local     -32.85244   -32.85244   -32.85244     1.52135     1.52135     1.52135
  n-local   -90.42425   -88.75657   -85.04730     0.01416    -0.12206     0.06541
  augment   132.99103   132.99103   132.99103    -0.00929    -0.00929    -0.00929
  Kinetic   513.92594   521.16522   527.98374     0.58157    -1.62446     1.10559
  Fock        0.00000     0.00000     0.00000     0.00000     0.00000     0.00000
  Total      -1.48590    -1.48590    -1.48590     0.01105     0.01105     0.01105
  in kB     -40.68808   -40.68808   -40.68808     0.30259     0.30259     0.30259

 VOLUME and BASIS-vectors are now :
  energy-cutoff  :      400.00
  volume of cell :       58.51
      direct lattice vectors                 reciprocal lattice vectors
     3.882200000  0.000000000  0.000000000     0.257585905  0.000000000  0.000000000
     0.000000000  3.882200000  0.000000000     0.000000000  0.257585905  0.000000000
     0.000000000  0.000000000  3.882200000     0.000000000  0.000000000  0.257585905

[...]

 FORCES acting on ions
    electron-ion (+dipol)            ewald-force                    non-local-force                 convergence-correction
   0.101E+02 0.101E+02 0.101E+02   -.104E+02 -.104E+02 -.104E+02   0.132E+00 0.132E+00 0.132E+00   -.353E-02 -.353E-02 -.353E-02
   -.310E+01 -.310E+01 -.310E+01   0.321E+01 0.321E+01 0.321E+01   -.109E-01 -.109E-01 -.109E-01   0.296E-03 0.296E-03 0.296E-03
   -.175E+02 0.570E+01 0.570E+01   0.196E+02 -.623E+01 -.623E+01   -.201E+01 0.505E+00 0.505E+00   0.822E-02 -.262E-02 -.262E-02
   0.570E+01 -.175E+02 0.570E+01   -.623E+01 0.196E+02 -.623E+01   0.505E+00 -.201E+01 0.505E+00   -.262E-02 0.822E-02 -.262E-02
   0.570E+01 0.570E+01 -.175E+02   -.623E+01 -.623E+01 0.196E+02   0.505E+00 0.505E+00 -.201E+01   -.262E-02 -.262E-02 0.822E-02
   0.881E+00 0.881E+00 0.881E+00   0.888E-15 -.888E-15 0.711E-14   -.878E+00 -.878E+00 -.878E+00   -.241E-03 -.241E-03 -.241E-03

 POSITION                                       TOTAL-FORCE (eV/Angst)
      0.03882      0.03882      0.03882        -0.105284     -0.105284     -0.105284
      1.94110      1.94110      1.94110         0.093065      0.093065      0.093065
      1.94110      0.00000      0.00000         0.071677     -0.029729     -0.029729
      0.00000      1.94110      0.00000        -0.029729      0.071677     -0.029729
      0.00000      0.00000      1.94110        -0.029729     -0.029729      0.071677
    total drift:                                0.002694      0.002694      0.002727

  FREE ENERGIE OF THE ION-ELECTRON SYSTEM (eV)
  free  energy   TOTEN  =       -40.06099315 eV

  energy  without entropy=      -40.06793150  energy(sigma->0) =      -40.06330593

 stress matrix after NEB project (eV)
     -1.48590      0.01105      0.01105
      0.01105     -1.48590      0.01105
      0.01105      0.01105     -1.48590
  FORCES: max atom, RMS     0.182357    0.108846
  FORCE total and by dimension    0.243387    0.105284
  Stress total and by dimension    2.573801    1.485903

[...]

 d Force = 0.2523349E-02[ 0.219E-02, 0.286E-02]  d Energy = 0.2508758E-02 0.146E-04
 d Force = 0.1781046E+00[ 0.155E+00, 0.201E+00]  d Ewald  = 0.1781080E+00-0.342E-05

 stress matrix after NEB project (eV)
     -1.43651      0.00537      0.00537
      0.00537     -1.43651      0.00537
      0.00537      0.00537     -1.43651
  FORCES: max atom, RMS     0.133124    0.083571
  FORCE total and by dimension    0.186871    0.076859
  Stress total and by dimension    2.488145    1.436511
 Steepest descent step on ions:
 trial-energy change:   -0.002509  1 .order   -0.002523   -0.002858   -0.002189
  (g-gl).g = 0.286E-02      g.g   = 0.286E-02  gl.gl    = 0.000E+00
 g(Force)  = 0.286E-02   g(Stress)= 0.000E+00 ortho     = 0.000E+00
 gamma     =   0.00000
 trial     =   1.00000
 opt step  =   4.00000  (harmonic =   4.27286) maximal distance =0.01795874
 next E    =   -40.067099   (d E  =  -0.00611)

 FEWALD executed in parallel

[...]

 eigenvalue-minimisations  :   836
 total energy-change (2. order) :-0.1216475E-01  (-0.1560319E-01)
 number of electron      36.0000026 magnetization
 augmentation part       11.1142057 magnetization

[...]

 Broyden mixing:
  rms(total) = 0.94765E-02    rms(broyden)= 0.94746E-02
  rms(prec ) = 0.15339E-01
  weight for this iteration     100.00

 eigenvalues of (default mixing * dielectric matrix)
  average eigenvalue GAMMA=   1.3219
  0.9300  1.7137

[...]

----------------------------------------- Iteration    3(   4)  ---------------------------------------

 eigenvalue-minimisations  :  1188
 total energy-change (2. order) : 0.3385312E-04  (-0.4549913E-04)
 number of electron      36.0000027 magnetization
 augmentation part       11.1127444 magnetization

 Free energy of the ion-electron system (eV)
  alpha Z        PSCENC =       166.69949767
  Ewald energy   TEWEN  =     -2277.60680391
  -Hartree energ DENC   =      -683.44747040
  -exchange      EXHF   =         0.00000000
  -V(xc)+E(xc)   XCENC  =       137.62720523
  PAW double counting   =      3503.63322516    -3510.21239737
  entropy T*S    EENTRO =         0.00698233
  eigenvalues    EBANDS =      -328.82012429
  atomic energy  EATOM  =      2952.05274943
  free energy    TOTEN  =       -40.06713614 eV

  energy without entropy =      -40.07411848  energy(sigma->0) =      -40.06946359

 average (electrostatic) potential at core
  the test charge radii are     1.0397  1.2658  0.7215
  (the norm of the test charge is              1.0000)
       1 -53.1358       2 -45.6260       3 -70.0847       4 -70.0847       5 -70.0847

 E-fermi :   3.7000     XC(G=0): -11.0119     alpha+bet :-13.2781

[...]

 k-point    19 :      -0.4000    0.4000    0.4000
  band No.  band energies     occupation
      1     -29.0899      2.00000
      2     -29.0894      2.00000
      3     -29.0892      2.00000
      4     -16.6760      2.00000
      5     -16.6641      2.00000
      6     -16.6641      2.00000
      7     -12.4944      2.00000
      8     -12.3982      2.00000
      9     -12.3982      2.00000
     10      -0.7365      2.00000
     11      -0.5067      2.00000
     12      -0.4636      2.00000
     13      -0.4609      2.00000
     14      -0.3396      2.00000
     15      -0.3288      2.00000
     16       3.4566      2.07090
     17       3.4570      2.07088
     18       3.6106      1.67886
     19       7.9421     -0.00000
     20       7.9777     -0.00000
     21       7.9826     -0.00000
     22       9.6615      0.00000

 soft charge-density along one line, spin component           1
         0         1         2         3         4         5         6         7         8         9
 total charge-density along one line

------------------------ aborting loop because EDIFF is reached ----------------------------------------

  FORCE on cell =-STRESS in cart. coord.  units (eV):
  Direction    XX          YY          ZZ          XY          YZ          ZX
  Alpha Z   166.69950   166.69950   166.69950
  Ewald    -759.20298  -759.20298  -759.20298    -0.26009    -0.26009    -0.26009
  Hartree   227.82238   227.82238   227.82238    -0.11660    -0.11660    -0.11660
  E(xc)    -170.15527  -170.15527  -170.15527    -0.00048    -0.00048    -0.00048
  Local     -32.62030   -32.62030   -32.62030     0.37699     0.37699     0.37699
  n-local   -90.46150   -88.73880   -84.94328     0.02596    -0.11219     0.07672
  augment   133.04255   133.04255   133.04255    -0.00212    -0.00212    -0.00212
  Kinetic   513.81879   521.11120   527.97615     0.51619    -1.58860     1.09265
  Fock        0.00000     0.00000     0.00000     0.00000     0.00000     0.00000
  Total      -1.49327    -1.49327    -1.49327     0.00127     0.00127     0.00127
  in kB     -40.88982   -40.88982   -40.88982     0.03468     0.03468     0.03468

 VOLUME and BASIS-vectors are now :
  energy-cutoff  :      400.00
  volume of cell :       58.51
      direct lattice vectors                 reciprocal lattice vectors
     3.882200000  0.000000000  0.000000000     0.257585905  0.000000000  0.000000000
     0.000000000  3.882200000  0.000000000     0.000000000  0.257585905  0.000000000
     0.000000000  0.000000000  3.882200000     0.000000000  0.000000000  0.257585905

  length of vectors
     3.882200000  3.882200000  3.882200000     0.257585905  0.257585905  0.257585905

 FORCES acting on ions
    electron-ion (+dipol)            ewald-force                    non-local-force                 convergence-correction
   0.341E+01 0.341E+01 0.341E+01   -.347E+01 -.347E+01 -.347E+01   0.615E-01 0.615E-01 0.615E-01   0.520E-02 0.520E-02 0.520E-02
   0.270E+01 0.270E+01 0.270E+01   -.262E+01 -.262E+01 -.262E+01   -.632E-01 -.632E-01 -.632E-01   0.112E-01 0.112E-01 0.112E-01
   -.745E+01 0.106E+01 0.106E+01   0.841E+01 -.116E+01 -.116E+01   -.878E+00 0.454E-01 0.454E-01   -.362E-01 0.131E-01 0.131E-01
   0.106E+01 -.745E+01 0.106E+01   -.116E+01 0.841E+01 -.116E+01   0.454E-01 -.878E+00 0.454E-01   0.131E-01 -.362E-01 0.131E-01
   0.106E+01 0.106E+01 -.745E+01   -.116E+01 -.116E+01 0.841E+01   0.454E-01 0.454E-01 -.878E+00   0.131E-01 0.131E-01 -.362E-01
   0.782E+00 0.782E+00 0.782E+00   0.178E-14 0.133E-14 0.178E-14   -.789E+00 -.789E+00 -.789E+00   0.641E-02 0.641E-02 0.641E-02

 POSITION                                       TOTAL-FORCE (eV/Angst)
      0.01851      0.01851      0.01851         0.004734      0.004734      0.004734
      1.95906      1.95906      1.95906         0.029616      0.029616      0.029616
      1.94110      0.00000      0.00000         0.045222     -0.039786     -0.039786
      0.00000      1.94110      0.00000        -0.039786      0.045222     -0.039786
      0.00000      0.00000      1.94110        -0.039786     -0.039786      0.045222
    total drift:                               -0.000708     -0.000708     -0.000665

  FREE ENERGIE OF THE ION-ELECTRON SYSTEM (eV)
  free  energy   TOTEN  =       -40.06713614 eV

  energy  without entropy=      -40.07411848  energy(sigma->0) =      -40.06946359

 d Force = 0.3773561E-02[ 0.980E-03, 0.657E-02]  d Energy = 0.3634236E-02 0.139E-03
 d Force = 0.2592474E+00[ 0.529E-01, 0.466E+00]  d Ewald  = 0.2593386E+00-0.912E-04

 stress matrix after NEB project (eV)
     -1.49327      0.00127      0.00127
      0.00127     -1.49327      0.00127
      0.00127      0.00127     -1.49327
  FORCES: max atom, RMS     0.051297    0.023232
  FORCE total and by dimension    0.051948    0.029616
  Stress total and by dimension    2.586421    1.493270

 reached required accuracy - stopping structural energy minimisation
 writing wavefunctions