 vasp.5.3.5 31Mar14 (build Dec 17 2015 22:09:37) complex

 executed on             LinuxIFC date 2017.03.19  16:24:10

 INCAR:
 POTCAR:    PAW_PBE Ti_pv 07Sep2000
 POTCAR:    PAW_PBE Ca_pv 06Sep2000
 POTCAR:    PAW_PBE O 08Apr2002

 POTCAR:    PAW_PBE Ti_pv 07Sep2000
   VRHFIN =Ti: d3 s1

   TITEL  = PAW_PBE Ti_pv 07Sep2000
   POMASS =   47.880; ZVAL   =   10.000    mass and valenz
   ENMAX  =  222.335; ENMIN  =  166.751 eV

 POTCAR:    PAW_PBE Ca_pv 06Sep2000
   VRHFIN =Ca: p6s2d0.01

   TITEL  = PAW_PBE Ca_pv 06Sep2000
   POMASS =   40.078; ZVAL   =    8.000    mass and valenz
   ENMAX  =  119.559; ENMIN  =   89.670 eV

 POTCAR:    PAW_PBE O 08Apr2002
   VRHFIN =O: s2p4

   TITEL  = PAW_PBE O 08Apr2002
   POMASS =   16.000; ZVAL   =    6.000    mass and valenz
   ENMAX  =  400.000; ENMIN  =  300.000 eV

  PAW_PBE Ti_pv 07Sep2000               :
  PAW_PBE Ca_pv 06Sep2000               :
  PAW_PBE O 08Apr2002                   :

 POSCAR: CaTiO3
  positions in direct lattice
  velocities in cartesian coordinates
 exchange correlation table for  LEXCH =        8
   RHO(1)=    0.500       N(1)  =     2000
   RHO(2)=  100.500       N(2)  =     4000

 VTST: version 3.1, (03/28/14)

 CHAIN: initializing optimizer

 OPT: Using VASP Conjugate-Gradient optimizer
 CHAIN: Read ICHAIN            0

 POSCAR: CaTiO3
  positions in direct lattice
  velocities in cartesian coordinates

 ion  position               nearest neighbor table
   1  0.010  0.020  0.030-   5 1.83   4 1.87   3 1.91   3 1.98   4 2.02   5 2.06   2 3.23   2 3.27
                             2 3.32   2 3.37   2 3.37   2 3.41   2 3.45   2 3.50
   2  0.500  0.500  0.500-   3 2.75   4 2.75   5 2.75   3 2.75   4 2.75   3 2.75   5 2.75   3 2.75
                             4 2.75   5 2.75   4 2.75   5 2.75   1 3.23   1 3.27   1 3.32   1 3.37
   3  0.500  0.000  0.000-   1 1.91   1 1.98   2 2.75   2 2.75   2 2.75   2 2.75
   4  0.000  0.500  0.000-   1 1.87   1 2.02   2 2.75   2 2.75   2 2.75   2 2.75
   5  0.000  0.000  0.500-   1 1.83   1 2.06   2 2.75   2 2.75   2 2.75   2 2.75

  LATTYP: Found a simple cubic cell.
 ALAT       =     3.8822000000

  Lattice vectors:

 A1 = (   3.8822000000,   0.0000000000,   0.0000000000)
 A2 = (   0.0000000000,   3.8822000000,   0.0000000000)
 A3 = (   0.0000000000,   0.0000000000,   3.8822000000)

Analysis of symmetry for initial positions (statically):
 Subroutine PRICEL returns:
 Original cell was already a primitive cell.

 Routine SETGRP: Setting up the symmetry group for a
 simple cubic supercell.

 Subroutine GETGRP returns: Found  1 space group operations
 (whereof  1 operations were pure point group operations)
 out of a pool of 48 trial point group operations.

The static configuration has the point symmetry C_1 .

Analysis of symmetry for dynamics (positions and initial velocities):
 Subroutine PRICEL returns:
 Original cell was already a primitive cell.

[...]

The dynamic configuration has the point symmetry C_1 .

Analysis of constrained symmetry for selective dynamics:
 Subroutine PRICEL returns:
 Original cell was already a primitive cell.

 Routine SETGRP: Setting up the symmetry group for a
 simple cubic supercell.

 Subroutine GETGRP returns: Found  1 space group operations
 (whereof  1 operations were pure point group operations)
 out of a pool of 48 trial point group operations.

The constrained configuration has the point symmetry C_1 .

 KPOINTS: k-points

Automatic generation of k-mesh.
Space group operators:
 irot       det(A)        alpha          n_x          n_y          n_z        tau_x        tau_y        tau_z
    1     1.000000     0.000000     1.000000     0.000000     0.000000     0.000000     0.000000     0.000000

 Subroutine IBZKPT returns following result:

 Found     63 irreducible k-points:

 Following reciprocal coordinates:
            Coordinates               Weight
  0.000000  0.000000  0.000000      1.000000
  0.200000  0.000000  0.000000      2.000000
  0.400000  0.000000  0.000000      2.000000
  0.000000  0.200000  0.000000      2.000000
  0.200000  0.200000  0.000000      2.000000
  0.400000  0.200000  0.000000      2.000000
 -0.400000  0.200000  0.000000      2.000000
 -0.200000  0.200000  0.000000      2.000000
  0.000000  0.400000  0.000000      2.000000
  0.200000  0.400000  0.000000      2.000000
  0.400000  0.400000  0.000000      2.000000
 -0.400000  0.400000  0.000000      2.000000
 -0.200000  0.400000  0.000000      2.000000
  0.000000  0.000000  0.200000      2.000000
  0.200000  0.000000  0.200000      2.000000
  0.400000  0.000000  0.200000      2.000000
 -0.400000  0.000000  0.200000      2.000000
 -0.200000  0.000000  0.200000      2.000000
  0.000000  0.200000  0.200000      2.000000
  0.200000  0.200000  0.200000      2.000000
  0.400000  0.200000  0.200000      2.000000
 -0.400000  0.200000  0.200000      2.000000
 -0.200000  0.200000  0.200000      2.000000
  0.000000  0.400000  0.200000      2.000000
  0.200000  0.400000  0.200000      2.000000
  0.400000  0.400000  0.200000      2.000000
 -0.400000  0.400000  0.200000      2.000000
 -0.200000  0.400000  0.200000      2.000000
  0.000000 -0.400000  0.200000      2.000000
  0.200000 -0.400000  0.200000      2.000000
  0.400000 -0.400000  0.200000      2.000000
 -0.400000 -0.400000  0.200000      2.000000
 -0.200000 -0.400000  0.200000      2.000000
  0.000000 -0.200000  0.200000      2.000000
  0.200000 -0.200000  0.200000      2.000000
  0.400000 -0.200000  0.200000      2.000000
 -0.400000 -0.200000  0.200000      2.000000
 -0.200000 -0.200000  0.200000      2.000000
  0.000000  0.000000  0.400000      2.000000
  0.200000  0.000000  0.400000      2.000000
  0.400000  0.000000  0.400000      2.000000
 -0.400000  0.000000  0.400000      2.000000
 -0.200000  0.000000  0.400000      2.000000
  0.000000  0.200000  0.400000      2.000000
  0.200000  0.200000  0.400000      2.000000
  0.400000  0.200000  0.400000      2.000000
 -0.400000  0.200000  0.400000      2.000000
 -0.200000  0.200000  0.400000      2.000000
  0.000000  0.400000  0.400000      2.000000
  0.200000  0.400000  0.400000      2.000000
  0.400000  0.400000  0.400000      2.000000
 -0.400000  0.400000  0.400000      2.000000
 -0.200000  0.400000  0.400000      2.000000
  0.000000 -0.400000  0.400000      2.000000
  0.200000 -0.400000  0.400000      2.000000
  0.400000 -0.400000  0.400000      2.000000
 -0.400000 -0.400000  0.400000      2.000000
 -0.200000 -0.400000  0.400000      2.000000
  0.000000 -0.200000  0.400000      2.000000
  0.200000 -0.200000  0.400000      2.000000
  0.400000 -0.200000  0.400000      2.000000
 -0.400000 -0.200000  0.400000      2.000000
 -0.200000 -0.200000  0.400000      2.000000

 Following cartesian coordinates:
            Coordinates               Weight
  0.000000  0.000000  0.000000      1.000000
  0.200000  0.000000  0.000000      2.000000
  0.400000  0.000000  0.000000      2.000000
  0.000000  0.200000  0.000000      2.000000
  0.200000  0.200000  0.000000      2.000000
  0.400000  0.200000  0.000000      2.000000
 -0.400000  0.200000  0.000000      2.000000
 -0.200000  0.200000  0.000000      2.000000
  0.000000  0.400000  0.000000      2.000000
  0.200000  0.400000  0.000000      2.000000
  0.400000  0.400000  0.000000      2.000000
 -0.400000  0.400000  0.000000      2.000000
 -0.200000  0.400000  0.000000      2.000000
  0.000000  0.000000  0.200000      2.000000
  0.200000  0.000000  0.200000      2.000000
  0.400000  0.000000  0.200000      2.000000
 -0.400000  0.000000  0.200000      2.000000
 -0.200000  0.000000  0.200000      2.000000
  0.000000  0.200000  0.200000      2.000000
  0.200000  0.200000  0.200000      2.000000
  0.400000  0.200000  0.200000      2.000000
 -0.400000  0.200000  0.200000      2.000000
 -0.200000  0.200000  0.200000      2.000000
  0.000000  0.400000  0.200000      2.000000
  0.200000  0.400000  0.200000      2.000000
  0.400000  0.400000  0.200000      2.000000
 -0.400000  0.400000  0.200000      2.000000
 -0.200000  0.400000  0.200000      2.000000
  0.000000 -0.400000  0.200000      2.000000
  0.200000 -0.400000  0.200000      2.000000
  0.400000 -0.400000  0.200000      2.000000
 -0.400000 -0.400000  0.200000      2.000000
 -0.200000 -0.400000  0.200000      2.000000
  0.000000 -0.200000  0.200000      2.000000
  0.200000 -0.200000  0.200000      2.000000
  0.400000 -0.200000  0.200000      2.000000
 -0.400000 -0.200000  0.200000      2.000000
 -0.200000 -0.200000  0.200000      2.000000
  0.000000  0.000000  0.400000      2.000000
  0.200000  0.000000  0.400000      2.000000
  0.400000  0.000000  0.400000      2.000000
 -0.400000  0.000000  0.400000      2.000000
 -0.200000  0.000000  0.400000      2.000000
  0.000000  0.200000  0.400000      2.000000
  0.200000  0.200000  0.400000      2.000000
  0.400000  0.200000  0.400000      2.000000
 -0.400000  0.200000  0.400000      2.000000
 -0.200000  0.200000  0.400000      2.000000
  0.000000  0.400000  0.400000      2.000000
  0.200000  0.400000  0.400000      2.000000
  0.400000  0.400000  0.400000      2.000000
 -0.400000  0.400000  0.400000      2.000000
 -0.200000  0.400000  0.400000      2.000000
  0.000000 -0.400000  0.400000      2.000000
  0.200000 -0.400000  0.400000      2.000000
  0.400000 -0.400000  0.400000      2.000000
 -0.400000 -0.400000  0.400000      2.000000
 -0.200000 -0.400000  0.400000      2.000000
  0.000000 -0.200000  0.400000      2.000000
  0.200000 -0.200000  0.400000      2.000000
  0.400000 -0.200000  0.400000      2.000000
 -0.400000 -0.200000  0.400000      2.000000
 -0.200000 -0.200000  0.400000      2.000000

 I would recommend the setting:
   dimension x,y,z NGX =    19 NGY =   19 NGZ =   19
 SYSTEM =  unknown system
 POSCAR =  CaTiO3

 Startparameter for this run:
   NWRITE =      2    write-flag & timer
   PREC   = normal    normal or accurate (medium, high low for compatibility)
   ISTART =      0    job   : 0-new  1-cont  2-samecut
   ICHARG =      2    charge: 1-file 2-atom 10-const
   ISPIN  =      1    spin polarized calculation?
   LNONCOLLINEAR =      F non collinear calculations
   LSORBIT =      F    spin-orbit coupling
   INIWAV =      1    electr: 0-lowe 1-rand  2-diag
   LASPH  =      F    aspherical Exc in radial PAW
   METAGGA=      F    non-selfconsistent MetaGGA calc.

 Electronic Relaxation 1
   ENCUT  =  400.0 eV  29.40 Ry    5.42 a.u.   6.33  6.33  6.33*2*pi/ulx,y,z
   ENINI  =  400.0     initial cutoff
   ENAUG  =  605.4 eV  augmentation charge cutoff
   NELM   =     60;   NELMIN=  2; NELMDL= -5     # of ELM steps
   EDIFF  = 0.1E-03   stopping-criterion for ELM
   LREAL  =      F    real-space projection
   NLSPLINE    = F    spline interpolate recip. space projectors
   LCOMPAT=      F    compatible to vasp.4.4
   GGA_COMPAT  = T    GGA compatible to vasp.4.4-vasp.4.6
   LMAXPAW     = -100 max onsite density
   LMAXMIX     =    2 max onsite mixed and CHGCAR
   VOSKOWN=      0    Vosko Wilk Nusair interpolation
   ROPT   =    0.00000   0.00000   0.00000
 Ionic relaxation
   EDIFFG = 0.1E-02   stopping-criterion for IOM
   NSW    =   1024    number of steps for IOM
   NBLOCK =      1;   KBLOCK =   1024    inner block; outer block
[...]
 k-point 36 :   0.4000-0.2000 0.2000  plane waves:    1068
 k-point 37 :  -0.4000-0.2000 0.2000  plane waves:    1068
 k-point 38 :  -0.2000-0.2000 0.2000  plane waves:    1066
 k-point 39 :   0.0000 0.0000 0.4000  plane waves:    1064
 k-point 40 :   0.2000 0.0000 0.4000  plane waves:    1072
 k-point 41 :   0.4000 0.0000 0.4000  plane waves:    1063
 k-point 42 :  -0.4000 0.0000 0.4000  plane waves:    1063
 k-point 43 :  -0.2000 0.0000 0.4000  plane waves:    1072
 k-point 44 :   0.0000 0.2000 0.4000  plane waves:    1072
 k-point 45 :   0.2000 0.2000 0.4000  plane waves:    1068
 k-point 46 :   0.4000 0.2000 0.4000  plane waves:    1054
 k-point 47 :  -0.4000 0.2000 0.4000  plane waves:    1054
 k-point 48 :  -0.2000 0.2000 0.4000  plane waves:    1068
 k-point 49 :   0.0000 0.4000 0.4000  plane waves:    1063
 k-point 50 :   0.2000 0.4000 0.4000  plane waves:    1054
 k-point 51 :   0.4000 0.4000 0.4000  plane waves:    1058
 k-point 52 :  -0.4000 0.4000 0.4000  plane waves:    1058
 k-point 53 :  -0.2000 0.4000 0.4000  plane waves:    1054
 k-point 54 :   0.0000-0.4000 0.4000  plane waves:    1063
 k-point 55 :   0.2000-0.4000 0.4000  plane waves:    1054
 k-point 56 :   0.4000-0.4000 0.4000  plane waves:    1058
 k-point 57 :  -0.4000-0.4000 0.4000  plane waves:    1058
 k-point 58 :  -0.2000-0.4000 0.4000  plane waves:    1054
 k-point 59 :   0.0000-0.2000 0.4000  plane waves:    1072
 k-point 60 :   0.2000-0.2000 0.4000  plane waves:    1068
 k-point 61 :   0.4000-0.2000 0.4000  plane waves:    1054
 k-point 62 :  -0.4000-0.2000 0.4000  plane waves:    1054
 k-point 63 :  -0.2000-0.2000 0.4000  plane waves:    1068

 maximum and minimum number of plane-waves per node :      1073     1045

 maximum number of plane-waves:      1073
 maximum index in each direction:
   IXMAX=    6   IYMAX=    6   IZMAX=    6
   IXMIN=   -6   IYMIN=   -6   IZMIN=   -6

 WARNING: aliasing errors must be expected set NGX to  26 to avoid them
 WARNING: aliasing errors must be expected set NGY to  26 to avoid them
 WARNING: aliasing errors must be expected set NGZ to  26 to avoid them
 aliasing errors are usually negligible using standard VASP settings
 and one can safely disregard these warnings

 serial   3D FFT for wavefunctions
 parallel 3D FFT for charge:
    minimum data exchange during FFTs selected (reduces bandwidth)

 Broyden mixing: mesh for mixing (old mesh)
   NGX = 13   NGY = 13   NGZ = 13
  (NGX  = 40   NGY  = 40   NGZ  = 40)
  gives a total of   2197 points

 initial charge density was supplied:
 charge density of overlapping atoms calculated
 number of electron      36.0000000 magnetization
 keeping initial charge density in first step

 Maximum index for augmentation-charges          517 (set IRDMAX)

 First call to EWALD:  gamma=   0.457
 Maximum number of real-space cells 3x 3x 3
 Maximum number of reciprocal cells 3x 3x 3

 FEWALD executed in parallel

----------------------------------------- Iteration    1(   1)  ---------------------------------------

 eigenvalue-minimisations  :  2772
 total energy-change (2. order) : 0.2120691E+03  (-0.1633803E+04)
 number of electron      36.0000000 magnetization
 augmentation part       36.0000000 magnetization

 Free energy of the ion-electron system (eV)
  alpha Z        PSCENC =       166.69949767
  Ewald energy   TEWEN  =     -2274.95761532
  -Hartree energ DENC   =      -674.46957666
  -exchange      EXHF   =         0.00000000
  -V(xc)+E(xc)   XCENC  =       135.82473810
  PAW double counting   =      2297.08385515    -2300.16057493
  entropy T*S    EENTRO =         0.00270624
  eigenvalues    EBANDS =       -90.00666423
  atomic energy  EATOM  =      2952.05274943
  free energy    TOTEN  =       212.06911544 eV

  energy without entropy =      212.06640920  energy(sigma->0) =      212.06821336

[...]

 eigenvalue-minimisations  :  5280
 total energy-change (2. order) :-0.2549470E+03  (-0.2513254E+03)
 number of electron      36.0000000 magnetization
 augmentation part       36.0000000 magnetization

[...]

 Broyden mixing:
  rms(total) = 0.32097E+01    rms(broyden)= 0.32094E+01
  rms(prec ) = 0.54131E+01
  weight for this iteration     100.00

[...]

 eigenvalues of (default mixing * dielectric matrix)
  average eigenvalue GAMMA=   0.9973
  0.9973

[...]

 average (electrostatic) potential at core
  the test charge radii are     1.0397  1.2658  0.7215
  (the norm of the test charge is              1.0000)
       1 -52.9525       2 -45.6578       3 -70.0552       4 -70.1013       5 -70.1712

 E-fermi :   3.6702     XC(G=0): -11.0069     alpha+bet :-13.2781

 k-point     1 :       0.0000    0.0000    0.0000
  band No.  band energies     occupation
      1     -28.9155      2.00000
      2     -28.8886      2.00000
      3     -28.8739      2.00000
      4     -16.6291      2.00000
      5     -16.6259      2.00000
      6     -16.6202      2.00000
      7     -13.8633      2.00000
      8     -12.7813      2.00000
      9     -12.7314      2.00000
     10       0.6597      2.00000
     11       0.6714      2.00000
     12       0.6963      2.00000
     13       2.4077      2.00000
     14       2.4119      2.00000
     15       2.5568      2.00000
     16       3.0201      2.00004
     17       3.0915      2.00033
     18       3.1341      2.00100
     19       5.8174     -0.00000
     20       5.9909     -0.00000
     21       6.0732     -0.00000
     22       8.2688     -0.00000

[...]

 soft charge-density along one line, spin component           1
         0         1         2         3         4         5         6         7         8         9
 total charge-density along one line

------------------------ aborting loop because EDIFF is reached ----------------------------------------

  FORCE on cell =-STRESS in cart. coord.  units (eV):
  Direction    XX          YY          ZZ          XY          YZ          ZX
  Alpha Z   166.69950   166.69950   166.69950
  Ewald    -762.57650  -759.10358  -753.27963    -2.05165    -6.28837    -3.11938
  Hartree   227.45073   228.54680   230.45848    -0.90057    -2.71762    -1.35564
  E(xc)    -170.27470  -170.27077  -170.26495    -0.00382    -0.01125    -0.00564
  Local     -28.34275   -32.94853   -40.77312     2.98238     9.03959     4.50169
  n-local   -88.21688   -88.20860   -88.20927    -0.02965    -0.09918    -0.04795
  augment   132.80809   132.85235   132.92023    -0.01872    -0.05076    -0.02585
  Kinetic   521.02584   521.32014   521.87401     0.03946     0.17950     0.07969
  Fock        0.00000     0.00000     0.00000     0.00000     0.00000     0.00000
  Total      -1.42668    -1.11269    -0.57477     0.01743     0.05190     0.02692
  in kB     -39.06630   -30.46843   -15.73868     0.47726     1.42114     0.73725

 VOLUME and BASIS-vectors are now :
  energy-cutoff  :      400.00
  volume of cell :       58.51
      direct lattice vectors                 reciprocal lattice vectors
     3.882200000  0.000000000  0.000000000     0.257585905  0.000000000  0.000000000
     0.000000000  3.882200000  0.000000000     0.000000000  0.257585905  0.000000000
     0.000000000  0.000000000  3.882200000     0.000000000  0.000000000  0.257585905

[...]

 FORCES acting on ions
    electron-ion (+dipol)            ewald-force                    non-local-force                 convergence-correction
   0.973E+01 0.197E+02 0.303E+02   -.996E+01 -.203E+02 -.313E+02   0.760E-01 0.174E+00 0.353E+00   0.150E-02 0.105E-02 -.501E-02
   -.313E+01 -.623E+01 -.928E+01   0.324E+01 0.645E+01 0.960E+01   -.104E-01 -.211E-01 -.321E-01   0.347E-03 0.773E-03 0.724E-03
   -.173E+02 0.113E+02 0.169E+02   0.194E+02 -.124E+02 -.185E+02   -.194E+01 0.103E+01 0.160E+01   -.413E-02 0.165E-02 0.269E-02
   0.572E+01 -.348E+02 0.171E+02   -.626E+01 0.390E+02 -.188E+02   0.516E+00 -.391E+01 0.163E+01   0.835E-03 -.832E-02 0.286E-02
   0.583E+01 0.116E+02 -.526E+02   -.639E+01 -.128E+02 0.590E+02   0.536E+00 0.109E+01 -.592E+01   0.862E-03 0.173E-02 -.133E-01
   0.828E+00 0.163E+01 0.239E+01   -.888E-15 0.355E-14 -.711E-14   -.825E+00 -.163E+01 -.237E+01   -.584E-03 -.313E-02 -.121E-01

 POSITION                                       TOTAL-FORCE (eV/Angst)
      0.03882      0.07764      0.11647        -0.152804     -0.375041     -0.702566
      1.94110      1.94110      1.94110         0.096442      0.193380      0.285490
      1.94110      0.00000      0.00000         0.103542     -0.036523     -0.037711
      0.00000      1.94110      0.00000        -0.023379      0.255986     -0.038387
      0.00000      0.00000      1.94110        -0.023801     -0.037801      0.493174
    total drift:                                0.002357     -0.003131      0.005396

  FREE ENERGIE OF THE ION-ELECTRON SYSTEM (eV)
  free  energy   TOTEN  =       -40.02504446 eV

  energy  without entropy=      -40.03190731  energy(sigma->0) =      -40.02733207

 stress matrix after NEB project (eV)
     -1.42668      0.01743      0.02692
      0.01743     -1.11269      0.05190
      0.02692      0.05190     -0.57477
  FORCES: max atom, RMS     0.810928    0.396435
  FORCE total and by dimension    0.886456    0.702566
  Stress total and by dimension    1.900337    1.426676

[...]

 d Force = 0.2859810E-01[ 0.193E-01, 0.379E-01]  d Energy = 0.2815244E-01 0.446E-03
 d Force = 0.1416504E+01[ 0.112E+01, 0.171E+01]  d Ewald  = 0.1416566E+01-0.618E-04

 stress matrix after NEB project (eV)
     -1.44945      0.00893      0.01200
      0.00893     -1.26007      0.02363
      0.01200      0.02363     -1.00722
  FORCES: max atom, RMS     0.385676    0.204466
  FORCE total and by dimension    0.457199    0.319603
  Stress total and by dimension    2.169038    1.449447
 Steepest descent step on ions:
 trial-energy change:   -0.028152  1 .order   -0.028598   -0.037909   -0.019287
  (g-gl).g = 0.379E-01      g.g   = 0.379E-01  gl.gl    = 0.000E+00
 g(Force)  = 0.379E-01   g(Stress)= 0.000E+00 ortho     = 0.000E+00
 gamma     =   0.00000
 trial     =   1.00000
 opt step  =   2.68582  (harmonic =   2.03568) maximal distance =0.03699117
 next E    =   -40.067319   (d E  =  -0.04227)

 FEWALD executed in parallel

[...]

 eigenvalue-minimisations  :  4686
 total energy-change (2. order) :-0.5662869E-03  (-0.4580850E-02)
 number of electron      36.0000055 magnetization
 augmentation part       11.1107746 magnetization

[...]

 Broyden mixing:
  rms(total) = 0.18834E-01    rms(broyden)= 0.18834E-01
  rms(prec ) = 0.22809E-01
  weight for this iteration     100.00

 eigenvalues of (default mixing * dielectric matrix)
  average eigenvalue GAMMA=   1.3450
  2.1900  1.2291  0.6160

[...]

----------------------------------------- Iteration    3(   5)  ---------------------------------------

 eigenvalue-minimisations  :  4444
 total energy-change (2. order) : 0.4968021E-05  (-0.4308749E-04)
 number of electron      36.0000055 magnetization
 augmentation part       11.1151628 magnetization

 Free energy of the ion-electron system (eV)
  alpha Z        PSCENC =       166.69949767
  Ewald energy   TEWEN  =     -2277.43454816
  -Hartree energ DENC   =      -683.63087188
  -exchange      EXHF   =         0.00000000
  -V(xc)+E(xc)   XCENC  =       137.63112176
  PAW double counting   =      3507.47725001    -3514.05356027
  entropy T*S    EENTRO =         0.00696107
  eigenvalues    EBANDS =      -328.81655720
  atomic energy  EATOM  =      2952.05274943
  free energy    TOTEN  =       -40.06795757 eV

  energy without entropy =      -40.07491865  energy(sigma->0) =      -40.07027793

 average (electrostatic) potential at core
  the test charge radii are     1.0397  1.2658  0.7215
  (the norm of the test charge is              1.0000)
       1 -53.1261       2 -45.6247       3 -70.0895       4 -70.0925       5 -70.0832

 E-fermi :   3.6961     XC(G=0): -11.0115     alpha+bet :-13.2781

[...]

 k-point    63 :      -0.2000   -0.2000    0.4000
  band No.  band energies     occupation
      1     -29.0859      2.00000
      2     -29.0427      2.00000
      3     -29.0412      2.00000
      4     -16.7425      2.00000
      5     -16.6327      2.00000
      6     -16.6136      2.00000
      7     -13.0177      2.00000
      8     -12.6162      2.00000
      9     -12.4034      2.00000
     10      -0.5918      2.00000
     11      -0.1289      2.00000
     12       0.1888      2.00000
     13       0.3424      2.00000
     14       0.6996      2.00000
     15       1.3864      2.00000
     16       2.5766      2.00000
     17       2.6617      2.00000
     18       2.9764      2.00000
     19       6.8389     -0.00000
     20       7.4636     -0.00000
     21       7.5020     -0.00000
     22       9.6656      0.00000

 soft charge-density along one line, spin component           1
         0         1         2         3         4         5         6         7         8         9
 total charge-density along one line

------------------------ aborting loop because EDIFF is reached ----------------------------------------

  FORCE on cell =-STRESS in cart. coord.  units (eV):
  Direction    XX          YY          ZZ          XY          YZ          ZX
  Alpha Z   166.69950   166.69950   166.69950
  Ewald    -759.27364  -758.87849  -759.28456    -0.42833    -0.55345    -0.37564
  Hartree   227.90259   228.01532   227.73010    -0.19071    -0.25003    -0.16874
  E(xc)    -170.16046  -170.15998  -170.16071    -0.00070    -0.00101    -0.00064
  Local     -32.62535   -33.13607   -32.41963     0.62109     0.80406     0.54500
  n-local   -88.05974   -88.06111   -88.06214    -0.00562    -0.00708    -0.00478
  augment   133.02462   133.03172   133.03022    -0.00286    -0.00453    -0.00250
  Kinetic   520.99102   521.03084   521.01576     0.00978     0.01699     0.00974
  Fock        0.00000     0.00000     0.00000     0.00000     0.00000     0.00000
  Total      -1.50147    -1.45826    -1.45145     0.00265     0.00497     0.00245
  in kB     -41.11428   -39.93126   -39.74467     0.07255     0.13596     0.06713

 VOLUME and BASIS-vectors are now :
  energy-cutoff  :      400.00
  volume of cell :       58.51
      direct lattice vectors                 reciprocal lattice vectors
     3.882200000  0.000000000  0.000000000     0.257585905  0.000000000  0.000000000
     0.000000000  3.882200000  0.000000000     0.000000000  0.257585905  0.000000000
     0.000000000  0.000000000  3.882200000     0.000000000  0.000000000  0.257585905

  length of vectors
     3.882200000  3.882200000  3.882200000     0.257585905  0.257585905  0.257585905

 FORCES acting on ions
    electron-ion (+dipol)            ewald-force                    non-local-force                 convergence-correction
   0.398E+01 0.561E+01 0.368E+01   -.405E+01 -.571E+01 -.375E+01   0.561E-01 0.790E-01 0.539E-01   0.974E-02 0.239E-01 0.540E-01
   0.140E+01 0.353E+01 0.660E+01   -.132E+01 -.339E+01 -.644E+01   -.443E-01 -.861E-01 -.122E+00   0.114E-02 -.295E-03 0.142E-02
   -.798E+01 0.196E+01 0.339E+00   0.896E+01 -.213E+01 -.350E+00   -.936E+00 0.112E+00 -.592E-01   0.990E-04 0.603E-03 0.112E-02
   0.165E+01 -.119E+02 0.347E+00   -.179E+01 0.134E+02 -.359E+00   0.114E+00 -.141E+01 -.576E-01   -.663E-03 0.633E-03 -.466E-03
   0.165E+01 0.197E+01 -.966E+01   -.179E+01 -.214E+01 0.109E+02   0.114E+00 0.113E+00 -.117E+01   -.158E-02 -.198E-02 0.112E-02
   0.690E+00 0.117E+01 0.130E+01   0.444E-15 0.444E-15 0.178E-14   -.695E+00 -.119E+01 -.136E+01   0.874E-02 0.229E-01 0.572E-01

 POSITION                                       TOTAL-FORCE (eV/Angst)
      0.01902      0.02905      0.02543        -0.009435     -0.003538      0.037952
      1.95360      1.96616      1.97809         0.034470      0.048553      0.030783
      1.94110      0.00000      0.00000         0.040233     -0.057087     -0.070169
      0.00000      1.94110      0.00000        -0.032772      0.068573     -0.069970
      0.00000      0.00000      1.94110        -0.032496     -0.056501      0.071404
    total drift:                                0.004099      0.003369      0.001990

  FREE ENERGIE OF THE ION-ELECTRON SYSTEM (eV)
  free  energy   TOTEN  =       -40.06795757 eV

  energy  without entropy=      -40.07491865  energy(sigma->0) =      -40.07027793

 d Force = 0.1615975E-01[-0.195E-03, 0.325E-01]  d Energy = 0.1476068E-01 0.140E-02
 d Force = 0.1059933E+01[ 0.226E+00, 0.189E+01]  d Ewald  = 0.1060367E+01-0.433E-03

 stress matrix after NEB project (eV)
     -1.50147      0.00265      0.00245
      0.00265     -1.45826      0.00497
      0.00245      0.00497     -1.45145
  FORCES: max atom, RMS     0.067031    0.034742
  FORCE total and by dimension    0.077686    0.048553
  Stress total and by dimension    2.547100    1.501467

 reached required accuracy - stopping structural energy minimisation
 writing wavefunctions